**
** Cantilever beam - CalculiX 2.21
**
** A 1.0 x 0.05 x 0.05 m steel beam, clamped at x = 0 and loaded by a
** 1000 N transverse force distributed over the free end at x = 1.0 m.
**
** Two steps are performed:
**   1. STATIC     - linear static deflection under the tip load
**   2. FREQUENCY  - first 10 natural frequencies of the clamped beam
**
** Euler-Bernoulli reference for the static step:
**   I     = b*h^3/12 = 5.2083e-7 m^4
**   delta = F*L^3/(3*E*I) = 1000/(3*210e9*5.2083e-7) = 3.048e-3 m
**
** Units: SI (m, N, Pa, kg)
**
*INCLUDE, INPUT=mesh.inp
**
** ---------------------------------------------------------------- material
*MATERIAL, NAME=STEEL
*ELASTIC
210.0E9, 0.3
*DENSITY
7850.0
**
*SOLID SECTION, ELSET=Eall, MATERIAL=STEEL
**
** ------------------------------------------------------------- constraints
*BOUNDARY
FIXED, 1, 3, 0.0
**
** ---------------------------------------------------------- step 1: static
*STEP
*STATIC
**
** 1000 N spread over the 81 nodes of the tip face (1000/81 = 12.345679 N)
*CLOAD
TIPLOAD, 3, -12.345679
**
*NODE FILE
U
*EL FILE
S, E
*NODE PRINT, NSET=TIPLOAD
U
*END STEP
**
** ------------------------------------------------------- step 2: frequency
*STEP
**
** The tip load of step 1 is removed so that the eigenmodes are those of the
** unloaded clamped beam
*CLOAD, OP=NEW
**
*FREQUENCY
10
**
*NODE FILE
U
*END STEP
