** Cantilever beam mesh - generated by makeMesh.py
** 1 x 0.05 x 0.05 m, 80 x 8 x 8 C3D8 elements
*NODE, NSET=Nall
1, 0.00000000, 0.00000000, 0.00000000
2, 0.00000000, 0.00000000, 0.00625000
3, 0.00000000, 0.00000000, 0.01250000
4, 0.00000000, 0.00000000, 0.01875000
5, 0.00000000, 0.00000000, 0.02500000
6, 0.00000000, 0.00000000, 0.03125000
7, 0.00000000, 0.00000000, 0.03750000
8, 0.00000000, 0.00000000, 0.04375000
9, 0.00000000, 0.00000000, 0.05000000
10, 0.00000000, 0.00625000, 0.00000000
11, 0.00000000, 0.00625000, 0.00625000
12, 0.00000000, 0.00625000, 0.01250000
13, 0.00000000, 0.00625000, 0.01875000
14, 0.00000000, 0.00625000, 0.02500000
15, 0.00000000, 0.00625000, 0.03125000
16, 0.00000000, 0.00625000, 0.03750000
17, 0.00000000, 0.00625000, 0.04375000
18, 0.00000000, 0.00625000, 0.05000000
19, 0.00000000, 0.01250000, 0.00000000
20, 0.00000000, 0.01250000, 0.00625000
21, 0.00000000, 0.01250000, 0.01250000
22, 0.00000000, 0.01250000, 0.01875000
23, 0.00000000, 0.01250000, 0.02500000
24, 0.00000000, 0.01250000, 0.03125000
25, 0.00000000, 0.01250000, 0.03750000
26, 0.00000000, 0.01250000, 0.04375000
27, 0.00000000, 0.01250000, 0.05000000
28, 0.00000000, 0.01875000, 0.00000000
29, 0.00000000, 0.01875000, 0.00625000
30, 0.00000000, 0.01875000, 0.01250000
31, 0.00000000, 0.01875000, 0.01875000
32, 0.00000000, 0.01875000, 0.02500000
33, 0.00000000, 0.01875000, 0.03125000
34, 0.00000000, 0.01875000, 0.03750000
35, 0.00000000, 0.01875000, 0.04375000
36, 0.00000000, 0.01875000, 0.05000000
37, 0.00000000, 0.02500000, 0.00000000
38, 0.00000000, 0.02500000, 0.00625000
39, 0.00000000, 0.02500000, 0.01250000
40, 0.00000000, 0.02500000, 0.01875000
41, 0.00000000, 0.02500000, 0.02500000
42, 0.00000000, 0.02500000, 0.03125000
43, 0.00000000, 0.02500000, 0.03750000
44, 0.00000000, 0.02500000, 0.04375000
45, 0.00000000, 0.02500000, 0.05000000
46, 0.00000000, 0.03125000, 0.00000000
47, 0.00000000, 0.03125000, 0.00625000
48, 0.00000000, 0.03125000, 0.01250000
49, 0.00000000, 0.03125000, 0.01875000
50, 0.00000000, 0.03125000, 0.02500000
51, 0.00000000, 0.03125000, 0.03125000
52, 0.00000000, 0.03125000, 0.03750000
53, 0.00000000, 0.03125000, 0.04375000
54, 0.00000000, 0.03125000, 0.05000000
55, 0.00000000, 0.03750000, 0.00000000
56, 0.00000000, 0.03750000, 0.00625000
57, 0.00000000, 0.03750000, 0.01250000
58, 0.00000000, 0.03750000, 0.01875000
59, 0.00000000, 0.03750000, 0.02500000
60, 0.00000000, 0.03750000, 0.03125000
61, 0.00000000, 0.03750000, 0.03750000
62, 0.00000000, 0.03750000, 0.04375000
63, 0.00000000, 0.03750000, 0.05000000
64, 0.00000000, 0.04375000, 0.00000000
65, 0.00000000, 0.04375000, 0.00625000
66, 0.00000000, 0.04375000, 0.01250000
67, 0.00000000, 0.04375000, 0.01875000
68, 0.00000000, 0.04375000, 0.02500000
69, 0.00000000, 0.04375000, 0.03125000
70, 0.00000000, 0.04375000, 0.03750000
71, 0.00000000, 0.04375000, 0.04375000
72, 0.00000000, 0.04375000, 0.05000000
73, 0.00000000, 0.05000000, 0.00000000
74, 0.00000000, 0.05000000, 0.00625000
75, 0.00000000, 0.05000000, 0.01250000
76, 0.00000000, 0.05000000, 0.01875000
77, 0.00000000, 0.05000000, 0.02500000
78, 0.00000000, 0.05000000, 0.03125000
79, 0.00000000, 0.05000000, 0.03750000
80, 0.00000000, 0.05000000, 0.04375000
81, 0.00000000, 0.05000000, 0.05000000
82, 0.01250000, 0.00000000, 0.00000000
83, 0.01250000, 0.00000000, 0.00625000
84, 0.01250000, 0.00000000, 0.01250000
85, 0.01250000, 0.00000000, 0.01875000
86, 0.01250000, 0.00000000, 0.02500000
87, 0.01250000, 0.00000000, 0.03125000
88, 0.01250000, 0.00000000, 0.03750000
89, 0.01250000, 0.00000000, 0.04375000
90, 0.01250000, 0.00000000, 0.05000000
91, 0.01250000, 0.00625000, 0.00000000
92, 0.01250000, 0.00625000, 0.00625000
93, 0.01250000, 0.00625000, 0.01250000
94, 0.01250000, 0.00625000, 0.01875000
95, 0.01250000, 0.00625000, 0.02500000
96, 0.01250000, 0.00625000, 0.03125000
97, 0.01250000, 0.00625000, 0.03750000
98, 0.01250000, 0.00625000, 0.04375000
99, 0.01250000, 0.00625000, 0.05000000
100, 0.01250000, 0.01250000, 0.00000000
101, 0.01250000, 0.01250000, 0.00625000
102, 0.01250000, 0.01250000, 0.01250000
103, 0.01250000, 0.01250000, 0.01875000
104, 0.01250000, 0.01250000, 0.02500000
105, 0.01250000, 0.01250000, 0.03125000
106, 0.01250000, 0.01250000, 0.03750000
107, 0.01250000, 0.01250000, 0.04375000
108, 0.01250000, 0.01250000, 0.05000000
109, 0.01250000, 0.01875000, 0.00000000
110, 0.01250000, 0.01875000, 0.00625000
111, 0.01250000, 0.01875000, 0.01250000
112, 0.01250000, 0.01875000, 0.01875000
113, 0.01250000, 0.01875000, 0.02500000
114, 0.01250000, 0.01875000, 0.03125000
115, 0.01250000, 0.01875000, 0.03750000
116, 0.01250000, 0.01875000, 0.04375000
117, 0.01250000, 0.01875000, 0.05000000
118, 0.01250000, 0.02500000, 0.00000000
119, 0.01250000, 0.02500000, 0.00625000
120, 0.01250000, 0.02500000, 0.01250000
121, 0.01250000, 0.02500000, 0.01875000
122, 0.01250000, 0.02500000, 0.02500000
123, 0.01250000, 0.02500000, 0.03125000
124, 0.01250000, 0.02500000, 0.03750000
125, 0.01250000, 0.02500000, 0.04375000
126, 0.01250000, 0.02500000, 0.05000000
127, 0.01250000, 0.03125000, 0.00000000
128, 0.01250000, 0.03125000, 0.00625000
129, 0.01250000, 0.03125000, 0.01250000
130, 0.01250000, 0.03125000, 0.01875000
131, 0.01250000, 0.03125000, 0.02500000
132, 0.01250000, 0.03125000, 0.03125000
133, 0.01250000, 0.03125000, 0.03750000
134, 0.01250000, 0.03125000, 0.04375000
135, 0.01250000, 0.03125000, 0.05000000
136, 0.01250000, 0.03750000, 0.00000000
137, 0.01250000, 0.03750000, 0.00625000
138, 0.01250000, 0.03750000, 0.01250000
139, 0.01250000, 0.03750000, 0.01875000
140, 0.01250000, 0.03750000, 0.02500000
141, 0.01250000, 0.03750000, 0.03125000
142, 0.01250000, 0.03750000, 0.03750000
143, 0.01250000, 0.03750000, 0.04375000
144, 0.01250000, 0.03750000, 0.05000000
145, 0.01250000, 0.04375000, 0.00000000
146, 0.01250000, 0.04375000, 0.00625000
147, 0.01250000, 0.04375000, 0.01250000
148, 0.01250000, 0.04375000, 0.01875000
149, 0.01250000, 0.04375000, 0.02500000
150, 0.01250000, 0.04375000, 0.03125000
151, 0.01250000, 0.04375000, 0.03750000
152, 0.01250000, 0.04375000, 0.04375000
153, 0.01250000, 0.04375000, 0.05000000
154, 0.01250000, 0.05000000, 0.00000000
155, 0.01250000, 0.05000000, 0.00625000
156, 0.01250000, 0.05000000, 0.01250000
157, 0.01250000, 0.05000000, 0.01875000
158, 0.01250000, 0.05000000, 0.02500000
159, 0.01250000, 0.05000000, 0.03125000
160, 0.01250000, 0.05000000, 0.03750000
161, 0.01250000, 0.05000000, 0.04375000
162, 0.01250000, 0.05000000, 0.05000000
163, 0.02500000, 0.00000000, 0.00000000
164, 0.02500000, 0.00000000, 0.00625000
165, 0.02500000, 0.00000000, 0.01250000
166, 0.02500000, 0.00000000, 0.01875000
167, 0.02500000, 0.00000000, 0.02500000
168, 0.02500000, 0.00000000, 0.03125000
169, 0.02500000, 0.00000000, 0.03750000
170, 0.02500000, 0.00000000, 0.04375000
171, 0.02500000, 0.00000000, 0.05000000
172, 0.02500000, 0.00625000, 0.00000000
173, 0.02500000, 0.00625000, 0.00625000
174, 0.02500000, 0.00625000, 0.01250000
175, 0.02500000, 0.00625000, 0.01875000
176, 0.02500000, 0.00625000, 0.02500000
177, 0.02500000, 0.00625000, 0.03125000
178, 0.02500000, 0.00625000, 0.03750000
179, 0.02500000, 0.00625000, 0.04375000
180, 0.02500000, 0.00625000, 0.05000000
181, 0.02500000, 0.01250000, 0.00000000
182, 0.02500000, 0.01250000, 0.00625000
183, 0.02500000, 0.01250000, 0.01250000
184, 0.02500000, 0.01250000, 0.01875000
185, 0.02500000, 0.01250000, 0.02500000
186, 0.02500000, 0.01250000, 0.03125000
187, 0.02500000, 0.01250000, 0.03750000
188, 0.02500000, 0.01250000, 0.04375000
189, 0.02500000, 0.01250000, 0.05000000
190, 0.02500000, 0.01875000, 0.00000000
191, 0.02500000, 0.01875000, 0.00625000
192, 0.02500000, 0.01875000, 0.01250000
193, 0.02500000, 0.01875000, 0.01875000
194, 0.02500000, 0.01875000, 0.02500000
195, 0.02500000, 0.01875000, 0.03125000
196, 0.02500000, 0.01875000, 0.03750000
197, 0.02500000, 0.01875000, 0.04375000
198, 0.02500000, 0.01875000, 0.05000000
199, 0.02500000, 0.02500000, 0.00000000
200, 0.02500000, 0.02500000, 0.00625000
201, 0.02500000, 0.02500000, 0.01250000
202, 0.02500000, 0.02500000, 0.01875000
203, 0.02500000, 0.02500000, 0.02500000
204, 0.02500000, 0.02500000, 0.03125000
205, 0.02500000, 0.02500000, 0.03750000
206, 0.02500000, 0.02500000, 0.04375000
207, 0.02500000, 0.02500000, 0.05000000
208, 0.02500000, 0.03125000, 0.00000000
209, 0.02500000, 0.03125000, 0.00625000
210, 0.02500000, 0.03125000, 0.01250000
211, 0.02500000, 0.03125000, 0.01875000
212, 0.02500000, 0.03125000, 0.02500000
213, 0.02500000, 0.03125000, 0.03125000
214, 0.02500000, 0.03125000, 0.03750000
215, 0.02500000, 0.03125000, 0.04375000
216, 0.02500000, 0.03125000, 0.05000000
217, 0.02500000, 0.03750000, 0.00000000
218, 0.02500000, 0.03750000, 0.00625000
219, 0.02500000, 0.03750000, 0.01250000
220, 0.02500000, 0.03750000, 0.01875000
221, 0.02500000, 0.03750000, 0.02500000
222, 0.02500000, 0.03750000, 0.03125000
223, 0.02500000, 0.03750000, 0.03750000
224, 0.02500000, 0.03750000, 0.04375000
225, 0.02500000, 0.03750000, 0.05000000
226, 0.02500000, 0.04375000, 0.00000000
227, 0.02500000, 0.04375000, 0.00625000
228, 0.02500000, 0.04375000, 0.01250000
229, 0.02500000, 0.04375000, 0.01875000
230, 0.02500000, 0.04375000, 0.02500000
231, 0.02500000, 0.04375000, 0.03125000
232, 0.02500000, 0.04375000, 0.03750000
233, 0.02500000, 0.04375000, 0.04375000
234, 0.02500000, 0.04375000, 0.05000000
235, 0.02500000, 0.05000000, 0.00000000
236, 0.02500000, 0.05000000, 0.00625000
237, 0.02500000, 0.05000000, 0.01250000
238, 0.02500000, 0.05000000, 0.01875000
239, 0.02500000, 0.05000000, 0.02500000
240, 0.02500000, 0.05000000, 0.03125000
241, 0.02500000, 0.05000000, 0.03750000
242, 0.02500000, 0.05000000, 0.04375000
243, 0.02500000, 0.05000000, 0.05000000
244, 0.03750000, 0.00000000, 0.00000000
245, 0.03750000, 0.00000000, 0.00625000
246, 0.03750000, 0.00000000, 0.01250000
247, 0.03750000, 0.00000000, 0.01875000
248, 0.03750000, 0.00000000, 0.02500000
249, 0.03750000, 0.00000000, 0.03125000
250, 0.03750000, 0.00000000, 0.03750000
251, 0.03750000, 0.00000000, 0.04375000
252, 0.03750000, 0.00000000, 0.05000000
253, 0.03750000, 0.00625000, 0.00000000
254, 0.03750000, 0.00625000, 0.00625000
255, 0.03750000, 0.00625000, 0.01250000
256, 0.03750000, 0.00625000, 0.01875000
257, 0.03750000, 0.00625000, 0.02500000
258, 0.03750000, 0.00625000, 0.03125000
259, 0.03750000, 0.00625000, 0.03750000
260, 0.03750000, 0.00625000, 0.04375000
261, 0.03750000, 0.00625000, 0.05000000
262, 0.03750000, 0.01250000, 0.00000000
263, 0.03750000, 0.01250000, 0.00625000
264, 0.03750000, 0.01250000, 0.01250000
265, 0.03750000, 0.01250000, 0.01875000
266, 0.03750000, 0.01250000, 0.02500000
267, 0.03750000, 0.01250000, 0.03125000
268, 0.03750000, 0.01250000, 0.03750000
269, 0.03750000, 0.01250000, 0.04375000
270, 0.03750000, 0.01250000, 0.05000000
271, 0.03750000, 0.01875000, 0.00000000
272, 0.03750000, 0.01875000, 0.00625000
273, 0.03750000, 0.01875000, 0.01250000
274, 0.03750000, 0.01875000, 0.01875000
275, 0.03750000, 0.01875000, 0.02500000
276, 0.03750000, 0.01875000, 0.03125000
277, 0.03750000, 0.01875000, 0.03750000
278, 0.03750000, 0.01875000, 0.04375000
279, 0.03750000, 0.01875000, 0.05000000
280, 0.03750000, 0.02500000, 0.00000000
281, 0.03750000, 0.02500000, 0.00625000
282, 0.03750000, 0.02500000, 0.01250000
283, 0.03750000, 0.02500000, 0.01875000
284, 0.03750000, 0.02500000, 0.02500000
285, 0.03750000, 0.02500000, 0.03125000
286, 0.03750000, 0.02500000, 0.03750000
287, 0.03750000, 0.02500000, 0.04375000
288, 0.03750000, 0.02500000, 0.05000000
289, 0.03750000, 0.03125000, 0.00000000
290, 0.03750000, 0.03125000, 0.00625000
291, 0.03750000, 0.03125000, 0.01250000
292, 0.03750000, 0.03125000, 0.01875000
293, 0.03750000, 0.03125000, 0.02500000
294, 0.03750000, 0.03125000, 0.03125000
295, 0.03750000, 0.03125000, 0.03750000
296, 0.03750000, 0.03125000, 0.04375000
297, 0.03750000, 0.03125000, 0.05000000
298, 0.03750000, 0.03750000, 0.00000000
299, 0.03750000, 0.03750000, 0.00625000
300, 0.03750000, 0.03750000, 0.01250000
301, 0.03750000, 0.03750000, 0.01875000
302, 0.03750000, 0.03750000, 0.02500000
303, 0.03750000, 0.03750000, 0.03125000
304, 0.03750000, 0.03750000, 0.03750000
305, 0.03750000, 0.03750000, 0.04375000
306, 0.03750000, 0.03750000, 0.05000000
307, 0.03750000, 0.04375000, 0.00000000
308, 0.03750000, 0.04375000, 0.00625000
309, 0.03750000, 0.04375000, 0.01250000
310, 0.03750000, 0.04375000, 0.01875000
311, 0.03750000, 0.04375000, 0.02500000
312, 0.03750000, 0.04375000, 0.03125000
313, 0.03750000, 0.04375000, 0.03750000
314, 0.03750000, 0.04375000, 0.04375000
315, 0.03750000, 0.04375000, 0.05000000
316, 0.03750000, 0.05000000, 0.00000000
317, 0.03750000, 0.05000000, 0.00625000
318, 0.03750000, 0.05000000, 0.01250000
319, 0.03750000, 0.05000000, 0.01875000
320, 0.03750000, 0.05000000, 0.02500000
321, 0.03750000, 0.05000000, 0.03125000
322, 0.03750000, 0.05000000, 0.03750000
323, 0.03750000, 0.05000000, 0.04375000
324, 0.03750000, 0.05000000, 0.05000000
325, 0.05000000, 0.00000000, 0.00000000
326, 0.05000000, 0.00000000, 0.00625000
327, 0.05000000, 0.00000000, 0.01250000
328, 0.05000000, 0.00000000, 0.01875000
329, 0.05000000, 0.00000000, 0.02500000
330, 0.05000000, 0.00000000, 0.03125000
331, 0.05000000, 0.00000000, 0.03750000
332, 0.05000000, 0.00000000, 0.04375000
333, 0.05000000, 0.00000000, 0.05000000
334, 0.05000000, 0.00625000, 0.00000000
335, 0.05000000, 0.00625000, 0.00625000
336, 0.05000000, 0.00625000, 0.01250000
337, 0.05000000, 0.00625000, 0.01875000
338, 0.05000000, 0.00625000, 0.02500000
339, 0.05000000, 0.00625000, 0.03125000
340, 0.05000000, 0.00625000, 0.03750000
341, 0.05000000, 0.00625000, 0.04375000
342, 0.05000000, 0.00625000, 0.05000000
343, 0.05000000, 0.01250000, 0.00000000
344, 0.05000000, 0.01250000, 0.00625000
345, 0.05000000, 0.01250000, 0.01250000
346, 0.05000000, 0.01250000, 0.01875000
347, 0.05000000, 0.01250000, 0.02500000
348, 0.05000000, 0.01250000, 0.03125000
349, 0.05000000, 0.01250000, 0.03750000
350, 0.05000000, 0.01250000, 0.04375000
351, 0.05000000, 0.01250000, 0.05000000
352, 0.05000000, 0.01875000, 0.00000000
353, 0.05000000, 0.01875000, 0.00625000
354, 0.05000000, 0.01875000, 0.01250000
355, 0.05000000, 0.01875000, 0.01875000
356, 0.05000000, 0.01875000, 0.02500000
357, 0.05000000, 0.01875000, 0.03125000
358, 0.05000000, 0.01875000, 0.03750000
359, 0.05000000, 0.01875000, 0.04375000
360, 0.05000000, 0.01875000, 0.05000000
361, 0.05000000, 0.02500000, 0.00000000
362, 0.05000000, 0.02500000, 0.00625000
363, 0.05000000, 0.02500000, 0.01250000
364, 0.05000000, 0.02500000, 0.01875000
365, 0.05000000, 0.02500000, 0.02500000
366, 0.05000000, 0.02500000, 0.03125000
367, 0.05000000, 0.02500000, 0.03750000
368, 0.05000000, 0.02500000, 0.04375000
369, 0.05000000, 0.02500000, 0.05000000
370, 0.05000000, 0.03125000, 0.00000000
371, 0.05000000, 0.03125000, 0.00625000
372, 0.05000000, 0.03125000, 0.01250000
373, 0.05000000, 0.03125000, 0.01875000
374, 0.05000000, 0.03125000, 0.02500000
375, 0.05000000, 0.03125000, 0.03125000
376, 0.05000000, 0.03125000, 0.03750000
377, 0.05000000, 0.03125000, 0.04375000
378, 0.05000000, 0.03125000, 0.05000000
379, 0.05000000, 0.03750000, 0.00000000
380, 0.05000000, 0.03750000, 0.00625000
381, 0.05000000, 0.03750000, 0.01250000
382, 0.05000000, 0.03750000, 0.01875000
383, 0.05000000, 0.03750000, 0.02500000
384, 0.05000000, 0.03750000, 0.03125000
385, 0.05000000, 0.03750000, 0.03750000
386, 0.05000000, 0.03750000, 0.04375000
387, 0.05000000, 0.03750000, 0.05000000
388, 0.05000000, 0.04375000, 0.00000000
389, 0.05000000, 0.04375000, 0.00625000
390, 0.05000000, 0.04375000, 0.01250000
391, 0.05000000, 0.04375000, 0.01875000
392, 0.05000000, 0.04375000, 0.02500000
393, 0.05000000, 0.04375000, 0.03125000
394, 0.05000000, 0.04375000, 0.03750000
395, 0.05000000, 0.04375000, 0.04375000
396, 0.05000000, 0.04375000, 0.05000000
397, 0.05000000, 0.05000000, 0.00000000
398, 0.05000000, 0.05000000, 0.00625000
399, 0.05000000, 0.05000000, 0.01250000
400, 0.05000000, 0.05000000, 0.01875000
401, 0.05000000, 0.05000000, 0.02500000
402, 0.05000000, 0.05000000, 0.03125000
403, 0.05000000, 0.05000000, 0.03750000
404, 0.05000000, 0.05000000, 0.04375000
405, 0.05000000, 0.05000000, 0.05000000
406, 0.06250000, 0.00000000, 0.00000000
407, 0.06250000, 0.00000000, 0.00625000
408, 0.06250000, 0.00000000, 0.01250000
409, 0.06250000, 0.00000000, 0.01875000
410, 0.06250000, 0.00000000, 0.02500000
411, 0.06250000, 0.00000000, 0.03125000
412, 0.06250000, 0.00000000, 0.03750000
413, 0.06250000, 0.00000000, 0.04375000
414, 0.06250000, 0.00000000, 0.05000000
415, 0.06250000, 0.00625000, 0.00000000
416, 0.06250000, 0.00625000, 0.00625000
417, 0.06250000, 0.00625000, 0.01250000
418, 0.06250000, 0.00625000, 0.01875000
419, 0.06250000, 0.00625000, 0.02500000
420, 0.06250000, 0.00625000, 0.03125000
421, 0.06250000, 0.00625000, 0.03750000
422, 0.06250000, 0.00625000, 0.04375000
423, 0.06250000, 0.00625000, 0.05000000
424, 0.06250000, 0.01250000, 0.00000000
425, 0.06250000, 0.01250000, 0.00625000
426, 0.06250000, 0.01250000, 0.01250000
427, 0.06250000, 0.01250000, 0.01875000
428, 0.06250000, 0.01250000, 0.02500000
429, 0.06250000, 0.01250000, 0.03125000
430, 0.06250000, 0.01250000, 0.03750000
431, 0.06250000, 0.01250000, 0.04375000
432, 0.06250000, 0.01250000, 0.05000000
433, 0.06250000, 0.01875000, 0.00000000
434, 0.06250000, 0.01875000, 0.00625000
435, 0.06250000, 0.01875000, 0.01250000
436, 0.06250000, 0.01875000, 0.01875000
437, 0.06250000, 0.01875000, 0.02500000
438, 0.06250000, 0.01875000, 0.03125000
439, 0.06250000, 0.01875000, 0.03750000
440, 0.06250000, 0.01875000, 0.04375000
441, 0.06250000, 0.01875000, 0.05000000
442, 0.06250000, 0.02500000, 0.00000000
443, 0.06250000, 0.02500000, 0.00625000
444, 0.06250000, 0.02500000, 0.01250000
445, 0.06250000, 0.02500000, 0.01875000
446, 0.06250000, 0.02500000, 0.02500000
447, 0.06250000, 0.02500000, 0.03125000
448, 0.06250000, 0.02500000, 0.03750000
449, 0.06250000, 0.02500000, 0.04375000
450, 0.06250000, 0.02500000, 0.05000000
451, 0.06250000, 0.03125000, 0.00000000
452, 0.06250000, 0.03125000, 0.00625000
453, 0.06250000, 0.03125000, 0.01250000
454, 0.06250000, 0.03125000, 0.01875000
455, 0.06250000, 0.03125000, 0.02500000
456, 0.06250000, 0.03125000, 0.03125000
457, 0.06250000, 0.03125000, 0.03750000
458, 0.06250000, 0.03125000, 0.04375000
459, 0.06250000, 0.03125000, 0.05000000
460, 0.06250000, 0.03750000, 0.00000000
461, 0.06250000, 0.03750000, 0.00625000
462, 0.06250000, 0.03750000, 0.01250000
463, 0.06250000, 0.03750000, 0.01875000
464, 0.06250000, 0.03750000, 0.02500000
465, 0.06250000, 0.03750000, 0.03125000
466, 0.06250000, 0.03750000, 0.03750000
467, 0.06250000, 0.03750000, 0.04375000
468, 0.06250000, 0.03750000, 0.05000000
469, 0.06250000, 0.04375000, 0.00000000
470, 0.06250000, 0.04375000, 0.00625000
471, 0.06250000, 0.04375000, 0.01250000
472, 0.06250000, 0.04375000, 0.01875000
473, 0.06250000, 0.04375000, 0.02500000
474, 0.06250000, 0.04375000, 0.03125000
475, 0.06250000, 0.04375000, 0.03750000
476, 0.06250000, 0.04375000, 0.04375000
477, 0.06250000, 0.04375000, 0.05000000
478, 0.06250000, 0.05000000, 0.00000000
479, 0.06250000, 0.05000000, 0.00625000
480, 0.06250000, 0.05000000, 0.01250000
481, 0.06250000, 0.05000000, 0.01875000
482, 0.06250000, 0.05000000, 0.02500000
483, 0.06250000, 0.05000000, 0.03125000
484, 0.06250000, 0.05000000, 0.03750000
485, 0.06250000, 0.05000000, 0.04375000
486, 0.06250000, 0.05000000, 0.05000000
487, 0.07500000, 0.00000000, 0.00000000
488, 0.07500000, 0.00000000, 0.00625000
489, 0.07500000, 0.00000000, 0.01250000
490, 0.07500000, 0.00000000, 0.01875000
491, 0.07500000, 0.00000000, 0.02500000
492, 0.07500000, 0.00000000, 0.03125000
493, 0.07500000, 0.00000000, 0.03750000
494, 0.07500000, 0.00000000, 0.04375000
495, 0.07500000, 0.00000000, 0.05000000
496, 0.07500000, 0.00625000, 0.00000000
497, 0.07500000, 0.00625000, 0.00625000
498, 0.07500000, 0.00625000, 0.01250000
499, 0.07500000, 0.00625000, 0.01875000
500, 0.07500000, 0.00625000, 0.02500000
501, 0.07500000, 0.00625000, 0.03125000
502, 0.07500000, 0.00625000, 0.03750000
503, 0.07500000, 0.00625000, 0.04375000
504, 0.07500000, 0.00625000, 0.05000000
505, 0.07500000, 0.01250000, 0.00000000
506, 0.07500000, 0.01250000, 0.00625000
507, 0.07500000, 0.01250000, 0.01250000
508, 0.07500000, 0.01250000, 0.01875000
509, 0.07500000, 0.01250000, 0.02500000
510, 0.07500000, 0.01250000, 0.03125000
511, 0.07500000, 0.01250000, 0.03750000
512, 0.07500000, 0.01250000, 0.04375000
513, 0.07500000, 0.01250000, 0.05000000
514, 0.07500000, 0.01875000, 0.00000000
515, 0.07500000, 0.01875000, 0.00625000
516, 0.07500000, 0.01875000, 0.01250000
517, 0.07500000, 0.01875000, 0.01875000
518, 0.07500000, 0.01875000, 0.02500000
519, 0.07500000, 0.01875000, 0.03125000
520, 0.07500000, 0.01875000, 0.03750000
521, 0.07500000, 0.01875000, 0.04375000
522, 0.07500000, 0.01875000, 0.05000000
523, 0.07500000, 0.02500000, 0.00000000
524, 0.07500000, 0.02500000, 0.00625000
525, 0.07500000, 0.02500000, 0.01250000
526, 0.07500000, 0.02500000, 0.01875000
527, 0.07500000, 0.02500000, 0.02500000
528, 0.07500000, 0.02500000, 0.03125000
529, 0.07500000, 0.02500000, 0.03750000
530, 0.07500000, 0.02500000, 0.04375000
531, 0.07500000, 0.02500000, 0.05000000
532, 0.07500000, 0.03125000, 0.00000000
533, 0.07500000, 0.03125000, 0.00625000
534, 0.07500000, 0.03125000, 0.01250000
535, 0.07500000, 0.03125000, 0.01875000
536, 0.07500000, 0.03125000, 0.02500000
537, 0.07500000, 0.03125000, 0.03125000
538, 0.07500000, 0.03125000, 0.03750000
539, 0.07500000, 0.03125000, 0.04375000
540, 0.07500000, 0.03125000, 0.05000000
541, 0.07500000, 0.03750000, 0.00000000
542, 0.07500000, 0.03750000, 0.00625000
543, 0.07500000, 0.03750000, 0.01250000
544, 0.07500000, 0.03750000, 0.01875000
545, 0.07500000, 0.03750000, 0.02500000
546, 0.07500000, 0.03750000, 0.03125000
547, 0.07500000, 0.03750000, 0.03750000
548, 0.07500000, 0.03750000, 0.04375000
549, 0.07500000, 0.03750000, 0.05000000
550, 0.07500000, 0.04375000, 0.00000000
551, 0.07500000, 0.04375000, 0.00625000
552, 0.07500000, 0.04375000, 0.01250000
553, 0.07500000, 0.04375000, 0.01875000
554, 0.07500000, 0.04375000, 0.02500000
555, 0.07500000, 0.04375000, 0.03125000
556, 0.07500000, 0.04375000, 0.03750000
557, 0.07500000, 0.04375000, 0.04375000
558, 0.07500000, 0.04375000, 0.05000000
559, 0.07500000, 0.05000000, 0.00000000
560, 0.07500000, 0.05000000, 0.00625000
561, 0.07500000, 0.05000000, 0.01250000
562, 0.07500000, 0.05000000, 0.01875000
563, 0.07500000, 0.05000000, 0.02500000
564, 0.07500000, 0.05000000, 0.03125000
565, 0.07500000, 0.05000000, 0.03750000
566, 0.07500000, 0.05000000, 0.04375000
567, 0.07500000, 0.05000000, 0.05000000
568, 0.08750000, 0.00000000, 0.00000000
569, 0.08750000, 0.00000000, 0.00625000
570, 0.08750000, 0.00000000, 0.01250000
571, 0.08750000, 0.00000000, 0.01875000
572, 0.08750000, 0.00000000, 0.02500000
573, 0.08750000, 0.00000000, 0.03125000
574, 0.08750000, 0.00000000, 0.03750000
575, 0.08750000, 0.00000000, 0.04375000
576, 0.08750000, 0.00000000, 0.05000000
577, 0.08750000, 0.00625000, 0.00000000
578, 0.08750000, 0.00625000, 0.00625000
579, 0.08750000, 0.00625000, 0.01250000
580, 0.08750000, 0.00625000, 0.01875000
581, 0.08750000, 0.00625000, 0.02500000
582, 0.08750000, 0.00625000, 0.03125000
583, 0.08750000, 0.00625000, 0.03750000
584, 0.08750000, 0.00625000, 0.04375000
585, 0.08750000, 0.00625000, 0.05000000
586, 0.08750000, 0.01250000, 0.00000000
587, 0.08750000, 0.01250000, 0.00625000
588, 0.08750000, 0.01250000, 0.01250000
589, 0.08750000, 0.01250000, 0.01875000
590, 0.08750000, 0.01250000, 0.02500000
591, 0.08750000, 0.01250000, 0.03125000
592, 0.08750000, 0.01250000, 0.03750000
593, 0.08750000, 0.01250000, 0.04375000
594, 0.08750000, 0.01250000, 0.05000000
595, 0.08750000, 0.01875000, 0.00000000
596, 0.08750000, 0.01875000, 0.00625000
597, 0.08750000, 0.01875000, 0.01250000
598, 0.08750000, 0.01875000, 0.01875000
599, 0.08750000, 0.01875000, 0.02500000
600, 0.08750000, 0.01875000, 0.03125000
601, 0.08750000, 0.01875000, 0.03750000
602, 0.08750000, 0.01875000, 0.04375000
603, 0.08750000, 0.01875000, 0.05000000
604, 0.08750000, 0.02500000, 0.00000000
605, 0.08750000, 0.02500000, 0.00625000
606, 0.08750000, 0.02500000, 0.01250000
607, 0.08750000, 0.02500000, 0.01875000
608, 0.08750000, 0.02500000, 0.02500000
609, 0.08750000, 0.02500000, 0.03125000
610, 0.08750000, 0.02500000, 0.03750000
611, 0.08750000, 0.02500000, 0.04375000
612, 0.08750000, 0.02500000, 0.05000000
613, 0.08750000, 0.03125000, 0.00000000
614, 0.08750000, 0.03125000, 0.00625000
615, 0.08750000, 0.03125000, 0.01250000
616, 0.08750000, 0.03125000, 0.01875000
617, 0.08750000, 0.03125000, 0.02500000
618, 0.08750000, 0.03125000, 0.03125000
619, 0.08750000, 0.03125000, 0.03750000
620, 0.08750000, 0.03125000, 0.04375000
621, 0.08750000, 0.03125000, 0.05000000
622, 0.08750000, 0.03750000, 0.00000000
623, 0.08750000, 0.03750000, 0.00625000
624, 0.08750000, 0.03750000, 0.01250000
625, 0.08750000, 0.03750000, 0.01875000
626, 0.08750000, 0.03750000, 0.02500000
627, 0.08750000, 0.03750000, 0.03125000
628, 0.08750000, 0.03750000, 0.03750000
629, 0.08750000, 0.03750000, 0.04375000
630, 0.08750000, 0.03750000, 0.05000000
631, 0.08750000, 0.04375000, 0.00000000
632, 0.08750000, 0.04375000, 0.00625000
633, 0.08750000, 0.04375000, 0.01250000
634, 0.08750000, 0.04375000, 0.01875000
635, 0.08750000, 0.04375000, 0.02500000
636, 0.08750000, 0.04375000, 0.03125000
637, 0.08750000, 0.04375000, 0.03750000
638, 0.08750000, 0.04375000, 0.04375000
639, 0.08750000, 0.04375000, 0.05000000
640, 0.08750000, 0.05000000, 0.00000000
641, 0.08750000, 0.05000000, 0.00625000
642, 0.08750000, 0.05000000, 0.01250000
643, 0.08750000, 0.05000000, 0.01875000
644, 0.08750000, 0.05000000, 0.02500000
645, 0.08750000, 0.05000000, 0.03125000
646, 0.08750000, 0.05000000, 0.03750000
647, 0.08750000, 0.05000000, 0.04375000
648, 0.08750000, 0.05000000, 0.05000000
649, 0.10000000, 0.00000000, 0.00000000
650, 0.10000000, 0.00000000, 0.00625000
651, 0.10000000, 0.00000000, 0.01250000
652, 0.10000000, 0.00000000, 0.01875000
653, 0.10000000, 0.00000000, 0.02500000
654, 0.10000000, 0.00000000, 0.03125000
655, 0.10000000, 0.00000000, 0.03750000
656, 0.10000000, 0.00000000, 0.04375000
657, 0.10000000, 0.00000000, 0.05000000
658, 0.10000000, 0.00625000, 0.00000000
659, 0.10000000, 0.00625000, 0.00625000
660, 0.10000000, 0.00625000, 0.01250000
661, 0.10000000, 0.00625000, 0.01875000
662, 0.10000000, 0.00625000, 0.02500000
663, 0.10000000, 0.00625000, 0.03125000
664, 0.10000000, 0.00625000, 0.03750000
665, 0.10000000, 0.00625000, 0.04375000
666, 0.10000000, 0.00625000, 0.05000000
667, 0.10000000, 0.01250000, 0.00000000
668, 0.10000000, 0.01250000, 0.00625000
669, 0.10000000, 0.01250000, 0.01250000
670, 0.10000000, 0.01250000, 0.01875000
671, 0.10000000, 0.01250000, 0.02500000
672, 0.10000000, 0.01250000, 0.03125000
673, 0.10000000, 0.01250000, 0.03750000
674, 0.10000000, 0.01250000, 0.04375000
675, 0.10000000, 0.01250000, 0.05000000
676, 0.10000000, 0.01875000, 0.00000000
677, 0.10000000, 0.01875000, 0.00625000
678, 0.10000000, 0.01875000, 0.01250000
679, 0.10000000, 0.01875000, 0.01875000
680, 0.10000000, 0.01875000, 0.02500000
681, 0.10000000, 0.01875000, 0.03125000
682, 0.10000000, 0.01875000, 0.03750000
683, 0.10000000, 0.01875000, 0.04375000
684, 0.10000000, 0.01875000, 0.05000000
685, 0.10000000, 0.02500000, 0.00000000
686, 0.10000000, 0.02500000, 0.00625000
687, 0.10000000, 0.02500000, 0.01250000
688, 0.10000000, 0.02500000, 0.01875000
689, 0.10000000, 0.02500000, 0.02500000
690, 0.10000000, 0.02500000, 0.03125000
691, 0.10000000, 0.02500000, 0.03750000
692, 0.10000000, 0.02500000, 0.04375000
693, 0.10000000, 0.02500000, 0.05000000
694, 0.10000000, 0.03125000, 0.00000000
695, 0.10000000, 0.03125000, 0.00625000
696, 0.10000000, 0.03125000, 0.01250000
697, 0.10000000, 0.03125000, 0.01875000
698, 0.10000000, 0.03125000, 0.02500000
699, 0.10000000, 0.03125000, 0.03125000
700, 0.10000000, 0.03125000, 0.03750000
701, 0.10000000, 0.03125000, 0.04375000
702, 0.10000000, 0.03125000, 0.05000000
703, 0.10000000, 0.03750000, 0.00000000
704, 0.10000000, 0.03750000, 0.00625000
705, 0.10000000, 0.03750000, 0.01250000
706, 0.10000000, 0.03750000, 0.01875000
707, 0.10000000, 0.03750000, 0.02500000
708, 0.10000000, 0.03750000, 0.03125000
709, 0.10000000, 0.03750000, 0.03750000
710, 0.10000000, 0.03750000, 0.04375000
711, 0.10000000, 0.03750000, 0.05000000
712, 0.10000000, 0.04375000, 0.00000000
713, 0.10000000, 0.04375000, 0.00625000
714, 0.10000000, 0.04375000, 0.01250000
715, 0.10000000, 0.04375000, 0.01875000
716, 0.10000000, 0.04375000, 0.02500000
717, 0.10000000, 0.04375000, 0.03125000
718, 0.10000000, 0.04375000, 0.03750000
719, 0.10000000, 0.04375000, 0.04375000
720, 0.10000000, 0.04375000, 0.05000000
721, 0.10000000, 0.05000000, 0.00000000
722, 0.10000000, 0.05000000, 0.00625000
723, 0.10000000, 0.05000000, 0.01250000
724, 0.10000000, 0.05000000, 0.01875000
725, 0.10000000, 0.05000000, 0.02500000
726, 0.10000000, 0.05000000, 0.03125000
727, 0.10000000, 0.05000000, 0.03750000
728, 0.10000000, 0.05000000, 0.04375000
729, 0.10000000, 0.05000000, 0.05000000
730, 0.11250000, 0.00000000, 0.00000000
731, 0.11250000, 0.00000000, 0.00625000
732, 0.11250000, 0.00000000, 0.01250000
733, 0.11250000, 0.00000000, 0.01875000
734, 0.11250000, 0.00000000, 0.02500000
735, 0.11250000, 0.00000000, 0.03125000
736, 0.11250000, 0.00000000, 0.03750000
737, 0.11250000, 0.00000000, 0.04375000
738, 0.11250000, 0.00000000, 0.05000000
739, 0.11250000, 0.00625000, 0.00000000
740, 0.11250000, 0.00625000, 0.00625000
741, 0.11250000, 0.00625000, 0.01250000
742, 0.11250000, 0.00625000, 0.01875000
743, 0.11250000, 0.00625000, 0.02500000
744, 0.11250000, 0.00625000, 0.03125000
745, 0.11250000, 0.00625000, 0.03750000
746, 0.11250000, 0.00625000, 0.04375000
747, 0.11250000, 0.00625000, 0.05000000
748, 0.11250000, 0.01250000, 0.00000000
749, 0.11250000, 0.01250000, 0.00625000
750, 0.11250000, 0.01250000, 0.01250000
751, 0.11250000, 0.01250000, 0.01875000
752, 0.11250000, 0.01250000, 0.02500000
753, 0.11250000, 0.01250000, 0.03125000
754, 0.11250000, 0.01250000, 0.03750000
755, 0.11250000, 0.01250000, 0.04375000
756, 0.11250000, 0.01250000, 0.05000000
757, 0.11250000, 0.01875000, 0.00000000
758, 0.11250000, 0.01875000, 0.00625000
759, 0.11250000, 0.01875000, 0.01250000
760, 0.11250000, 0.01875000, 0.01875000
761, 0.11250000, 0.01875000, 0.02500000
762, 0.11250000, 0.01875000, 0.03125000
763, 0.11250000, 0.01875000, 0.03750000
764, 0.11250000, 0.01875000, 0.04375000
765, 0.11250000, 0.01875000, 0.05000000
766, 0.11250000, 0.02500000, 0.00000000
767, 0.11250000, 0.02500000, 0.00625000
768, 0.11250000, 0.02500000, 0.01250000
769, 0.11250000, 0.02500000, 0.01875000
770, 0.11250000, 0.02500000, 0.02500000
771, 0.11250000, 0.02500000, 0.03125000
772, 0.11250000, 0.02500000, 0.03750000
773, 0.11250000, 0.02500000, 0.04375000
774, 0.11250000, 0.02500000, 0.05000000
775, 0.11250000, 0.03125000, 0.00000000
776, 0.11250000, 0.03125000, 0.00625000
777, 0.11250000, 0.03125000, 0.01250000
778, 0.11250000, 0.03125000, 0.01875000
779, 0.11250000, 0.03125000, 0.02500000
780, 0.11250000, 0.03125000, 0.03125000
781, 0.11250000, 0.03125000, 0.03750000
782, 0.11250000, 0.03125000, 0.04375000
783, 0.11250000, 0.03125000, 0.05000000
784, 0.11250000, 0.03750000, 0.00000000
785, 0.11250000, 0.03750000, 0.00625000
786, 0.11250000, 0.03750000, 0.01250000
787, 0.11250000, 0.03750000, 0.01875000
788, 0.11250000, 0.03750000, 0.02500000
789, 0.11250000, 0.03750000, 0.03125000
790, 0.11250000, 0.03750000, 0.03750000
791, 0.11250000, 0.03750000, 0.04375000
792, 0.11250000, 0.03750000, 0.05000000
793, 0.11250000, 0.04375000, 0.00000000
794, 0.11250000, 0.04375000, 0.00625000
795, 0.11250000, 0.04375000, 0.01250000
796, 0.11250000, 0.04375000, 0.01875000
797, 0.11250000, 0.04375000, 0.02500000
798, 0.11250000, 0.04375000, 0.03125000
799, 0.11250000, 0.04375000, 0.03750000
800, 0.11250000, 0.04375000, 0.04375000
801, 0.11250000, 0.04375000, 0.05000000
802, 0.11250000, 0.05000000, 0.00000000
803, 0.11250000, 0.05000000, 0.00625000
804, 0.11250000, 0.05000000, 0.01250000
805, 0.11250000, 0.05000000, 0.01875000
806, 0.11250000, 0.05000000, 0.02500000
807, 0.11250000, 0.05000000, 0.03125000
808, 0.11250000, 0.05000000, 0.03750000
809, 0.11250000, 0.05000000, 0.04375000
810, 0.11250000, 0.05000000, 0.05000000
811, 0.12500000, 0.00000000, 0.00000000
812, 0.12500000, 0.00000000, 0.00625000
813, 0.12500000, 0.00000000, 0.01250000
814, 0.12500000, 0.00000000, 0.01875000
815, 0.12500000, 0.00000000, 0.02500000
816, 0.12500000, 0.00000000, 0.03125000
817, 0.12500000, 0.00000000, 0.03750000
818, 0.12500000, 0.00000000, 0.04375000
819, 0.12500000, 0.00000000, 0.05000000
820, 0.12500000, 0.00625000, 0.00000000
821, 0.12500000, 0.00625000, 0.00625000
822, 0.12500000, 0.00625000, 0.01250000
823, 0.12500000, 0.00625000, 0.01875000
824, 0.12500000, 0.00625000, 0.02500000
825, 0.12500000, 0.00625000, 0.03125000
826, 0.12500000, 0.00625000, 0.03750000
827, 0.12500000, 0.00625000, 0.04375000
828, 0.12500000, 0.00625000, 0.05000000
829, 0.12500000, 0.01250000, 0.00000000
830, 0.12500000, 0.01250000, 0.00625000
831, 0.12500000, 0.01250000, 0.01250000
832, 0.12500000, 0.01250000, 0.01875000
833, 0.12500000, 0.01250000, 0.02500000
834, 0.12500000, 0.01250000, 0.03125000
835, 0.12500000, 0.01250000, 0.03750000
836, 0.12500000, 0.01250000, 0.04375000
837, 0.12500000, 0.01250000, 0.05000000
838, 0.12500000, 0.01875000, 0.00000000
839, 0.12500000, 0.01875000, 0.00625000
840, 0.12500000, 0.01875000, 0.01250000
841, 0.12500000, 0.01875000, 0.01875000
842, 0.12500000, 0.01875000, 0.02500000
843, 0.12500000, 0.01875000, 0.03125000
844, 0.12500000, 0.01875000, 0.03750000
845, 0.12500000, 0.01875000, 0.04375000
846, 0.12500000, 0.01875000, 0.05000000
847, 0.12500000, 0.02500000, 0.00000000
848, 0.12500000, 0.02500000, 0.00625000
849, 0.12500000, 0.02500000, 0.01250000
850, 0.12500000, 0.02500000, 0.01875000
851, 0.12500000, 0.02500000, 0.02500000
852, 0.12500000, 0.02500000, 0.03125000
853, 0.12500000, 0.02500000, 0.03750000
854, 0.12500000, 0.02500000, 0.04375000
855, 0.12500000, 0.02500000, 0.05000000
856, 0.12500000, 0.03125000, 0.00000000
857, 0.12500000, 0.03125000, 0.00625000
858, 0.12500000, 0.03125000, 0.01250000
859, 0.12500000, 0.03125000, 0.01875000
860, 0.12500000, 0.03125000, 0.02500000
861, 0.12500000, 0.03125000, 0.03125000
862, 0.12500000, 0.03125000, 0.03750000
863, 0.12500000, 0.03125000, 0.04375000
864, 0.12500000, 0.03125000, 0.05000000
865, 0.12500000, 0.03750000, 0.00000000
866, 0.12500000, 0.03750000, 0.00625000
867, 0.12500000, 0.03750000, 0.01250000
868, 0.12500000, 0.03750000, 0.01875000
869, 0.12500000, 0.03750000, 0.02500000
870, 0.12500000, 0.03750000, 0.03125000
871, 0.12500000, 0.03750000, 0.03750000
872, 0.12500000, 0.03750000, 0.04375000
873, 0.12500000, 0.03750000, 0.05000000
874, 0.12500000, 0.04375000, 0.00000000
875, 0.12500000, 0.04375000, 0.00625000
876, 0.12500000, 0.04375000, 0.01250000
877, 0.12500000, 0.04375000, 0.01875000
878, 0.12500000, 0.04375000, 0.02500000
879, 0.12500000, 0.04375000, 0.03125000
880, 0.12500000, 0.04375000, 0.03750000
881, 0.12500000, 0.04375000, 0.04375000
882, 0.12500000, 0.04375000, 0.05000000
883, 0.12500000, 0.05000000, 0.00000000
884, 0.12500000, 0.05000000, 0.00625000
885, 0.12500000, 0.05000000, 0.01250000
886, 0.12500000, 0.05000000, 0.01875000
887, 0.12500000, 0.05000000, 0.02500000
888, 0.12500000, 0.05000000, 0.03125000
889, 0.12500000, 0.05000000, 0.03750000
890, 0.12500000, 0.05000000, 0.04375000
891, 0.12500000, 0.05000000, 0.05000000
892, 0.13750000, 0.00000000, 0.00000000
893, 0.13750000, 0.00000000, 0.00625000
894, 0.13750000, 0.00000000, 0.01250000
895, 0.13750000, 0.00000000, 0.01875000
896, 0.13750000, 0.00000000, 0.02500000
897, 0.13750000, 0.00000000, 0.03125000
898, 0.13750000, 0.00000000, 0.03750000
899, 0.13750000, 0.00000000, 0.04375000
900, 0.13750000, 0.00000000, 0.05000000
901, 0.13750000, 0.00625000, 0.00000000
902, 0.13750000, 0.00625000, 0.00625000
903, 0.13750000, 0.00625000, 0.01250000
904, 0.13750000, 0.00625000, 0.01875000
905, 0.13750000, 0.00625000, 0.02500000
906, 0.13750000, 0.00625000, 0.03125000
907, 0.13750000, 0.00625000, 0.03750000
908, 0.13750000, 0.00625000, 0.04375000
909, 0.13750000, 0.00625000, 0.05000000
910, 0.13750000, 0.01250000, 0.00000000
911, 0.13750000, 0.01250000, 0.00625000
912, 0.13750000, 0.01250000, 0.01250000
913, 0.13750000, 0.01250000, 0.01875000
914, 0.13750000, 0.01250000, 0.02500000
915, 0.13750000, 0.01250000, 0.03125000
916, 0.13750000, 0.01250000, 0.03750000
917, 0.13750000, 0.01250000, 0.04375000
918, 0.13750000, 0.01250000, 0.05000000
919, 0.13750000, 0.01875000, 0.00000000
920, 0.13750000, 0.01875000, 0.00625000
921, 0.13750000, 0.01875000, 0.01250000
922, 0.13750000, 0.01875000, 0.01875000
923, 0.13750000, 0.01875000, 0.02500000
924, 0.13750000, 0.01875000, 0.03125000
925, 0.13750000, 0.01875000, 0.03750000
926, 0.13750000, 0.01875000, 0.04375000
927, 0.13750000, 0.01875000, 0.05000000
928, 0.13750000, 0.02500000, 0.00000000
929, 0.13750000, 0.02500000, 0.00625000
930, 0.13750000, 0.02500000, 0.01250000
931, 0.13750000, 0.02500000, 0.01875000
932, 0.13750000, 0.02500000, 0.02500000
933, 0.13750000, 0.02500000, 0.03125000
934, 0.13750000, 0.02500000, 0.03750000
935, 0.13750000, 0.02500000, 0.04375000
936, 0.13750000, 0.02500000, 0.05000000
937, 0.13750000, 0.03125000, 0.00000000
938, 0.13750000, 0.03125000, 0.00625000
939, 0.13750000, 0.03125000, 0.01250000
940, 0.13750000, 0.03125000, 0.01875000
941, 0.13750000, 0.03125000, 0.02500000
942, 0.13750000, 0.03125000, 0.03125000
943, 0.13750000, 0.03125000, 0.03750000
944, 0.13750000, 0.03125000, 0.04375000
945, 0.13750000, 0.03125000, 0.05000000
946, 0.13750000, 0.03750000, 0.00000000
947, 0.13750000, 0.03750000, 0.00625000
948, 0.13750000, 0.03750000, 0.01250000
949, 0.13750000, 0.03750000, 0.01875000
950, 0.13750000, 0.03750000, 0.02500000
951, 0.13750000, 0.03750000, 0.03125000
952, 0.13750000, 0.03750000, 0.03750000
953, 0.13750000, 0.03750000, 0.04375000
954, 0.13750000, 0.03750000, 0.05000000
955, 0.13750000, 0.04375000, 0.00000000
956, 0.13750000, 0.04375000, 0.00625000
957, 0.13750000, 0.04375000, 0.01250000
958, 0.13750000, 0.04375000, 0.01875000
959, 0.13750000, 0.04375000, 0.02500000
960, 0.13750000, 0.04375000, 0.03125000
961, 0.13750000, 0.04375000, 0.03750000
962, 0.13750000, 0.04375000, 0.04375000
963, 0.13750000, 0.04375000, 0.05000000
964, 0.13750000, 0.05000000, 0.00000000
965, 0.13750000, 0.05000000, 0.00625000
966, 0.13750000, 0.05000000, 0.01250000
967, 0.13750000, 0.05000000, 0.01875000
968, 0.13750000, 0.05000000, 0.02500000
969, 0.13750000, 0.05000000, 0.03125000
970, 0.13750000, 0.05000000, 0.03750000
971, 0.13750000, 0.05000000, 0.04375000
972, 0.13750000, 0.05000000, 0.05000000
973, 0.15000000, 0.00000000, 0.00000000
974, 0.15000000, 0.00000000, 0.00625000
975, 0.15000000, 0.00000000, 0.01250000
976, 0.15000000, 0.00000000, 0.01875000
977, 0.15000000, 0.00000000, 0.02500000
978, 0.15000000, 0.00000000, 0.03125000
979, 0.15000000, 0.00000000, 0.03750000
980, 0.15000000, 0.00000000, 0.04375000
981, 0.15000000, 0.00000000, 0.05000000
982, 0.15000000, 0.00625000, 0.00000000
983, 0.15000000, 0.00625000, 0.00625000
984, 0.15000000, 0.00625000, 0.01250000
985, 0.15000000, 0.00625000, 0.01875000
986, 0.15000000, 0.00625000, 0.02500000
987, 0.15000000, 0.00625000, 0.03125000
988, 0.15000000, 0.00625000, 0.03750000
989, 0.15000000, 0.00625000, 0.04375000
990, 0.15000000, 0.00625000, 0.05000000
991, 0.15000000, 0.01250000, 0.00000000
992, 0.15000000, 0.01250000, 0.00625000
993, 0.15000000, 0.01250000, 0.01250000
994, 0.15000000, 0.01250000, 0.01875000
995, 0.15000000, 0.01250000, 0.02500000
996, 0.15000000, 0.01250000, 0.03125000
997, 0.15000000, 0.01250000, 0.03750000
998, 0.15000000, 0.01250000, 0.04375000
999, 0.15000000, 0.01250000, 0.05000000
1000, 0.15000000, 0.01875000, 0.00000000
1001, 0.15000000, 0.01875000, 0.00625000
1002, 0.15000000, 0.01875000, 0.01250000
1003, 0.15000000, 0.01875000, 0.01875000
1004, 0.15000000, 0.01875000, 0.02500000
1005, 0.15000000, 0.01875000, 0.03125000
1006, 0.15000000, 0.01875000, 0.03750000
1007, 0.15000000, 0.01875000, 0.04375000
1008, 0.15000000, 0.01875000, 0.05000000
1009, 0.15000000, 0.02500000, 0.00000000
1010, 0.15000000, 0.02500000, 0.00625000
1011, 0.15000000, 0.02500000, 0.01250000
1012, 0.15000000, 0.02500000, 0.01875000
1013, 0.15000000, 0.02500000, 0.02500000
1014, 0.15000000, 0.02500000, 0.03125000
1015, 0.15000000, 0.02500000, 0.03750000
1016, 0.15000000, 0.02500000, 0.04375000
1017, 0.15000000, 0.02500000, 0.05000000
1018, 0.15000000, 0.03125000, 0.00000000
1019, 0.15000000, 0.03125000, 0.00625000
1020, 0.15000000, 0.03125000, 0.01250000
1021, 0.15000000, 0.03125000, 0.01875000
1022, 0.15000000, 0.03125000, 0.02500000
1023, 0.15000000, 0.03125000, 0.03125000
1024, 0.15000000, 0.03125000, 0.03750000
1025, 0.15000000, 0.03125000, 0.04375000
1026, 0.15000000, 0.03125000, 0.05000000
1027, 0.15000000, 0.03750000, 0.00000000
1028, 0.15000000, 0.03750000, 0.00625000
1029, 0.15000000, 0.03750000, 0.01250000
1030, 0.15000000, 0.03750000, 0.01875000
1031, 0.15000000, 0.03750000, 0.02500000
1032, 0.15000000, 0.03750000, 0.03125000
1033, 0.15000000, 0.03750000, 0.03750000
1034, 0.15000000, 0.03750000, 0.04375000
1035, 0.15000000, 0.03750000, 0.05000000
1036, 0.15000000, 0.04375000, 0.00000000
1037, 0.15000000, 0.04375000, 0.00625000
1038, 0.15000000, 0.04375000, 0.01250000
1039, 0.15000000, 0.04375000, 0.01875000
1040, 0.15000000, 0.04375000, 0.02500000
1041, 0.15000000, 0.04375000, 0.03125000
1042, 0.15000000, 0.04375000, 0.03750000
1043, 0.15000000, 0.04375000, 0.04375000
1044, 0.15000000, 0.04375000, 0.05000000
1045, 0.15000000, 0.05000000, 0.00000000
1046, 0.15000000, 0.05000000, 0.00625000
1047, 0.15000000, 0.05000000, 0.01250000
1048, 0.15000000, 0.05000000, 0.01875000
1049, 0.15000000, 0.05000000, 0.02500000
1050, 0.15000000, 0.05000000, 0.03125000
1051, 0.15000000, 0.05000000, 0.03750000
1052, 0.15000000, 0.05000000, 0.04375000
1053, 0.15000000, 0.05000000, 0.05000000
1054, 0.16250000, 0.00000000, 0.00000000
1055, 0.16250000, 0.00000000, 0.00625000
1056, 0.16250000, 0.00000000, 0.01250000
1057, 0.16250000, 0.00000000, 0.01875000
1058, 0.16250000, 0.00000000, 0.02500000
1059, 0.16250000, 0.00000000, 0.03125000
1060, 0.16250000, 0.00000000, 0.03750000
1061, 0.16250000, 0.00000000, 0.04375000
1062, 0.16250000, 0.00000000, 0.05000000
1063, 0.16250000, 0.00625000, 0.00000000
1064, 0.16250000, 0.00625000, 0.00625000
1065, 0.16250000, 0.00625000, 0.01250000
1066, 0.16250000, 0.00625000, 0.01875000
1067, 0.16250000, 0.00625000, 0.02500000
1068, 0.16250000, 0.00625000, 0.03125000
1069, 0.16250000, 0.00625000, 0.03750000
1070, 0.16250000, 0.00625000, 0.04375000
1071, 0.16250000, 0.00625000, 0.05000000
1072, 0.16250000, 0.01250000, 0.00000000
1073, 0.16250000, 0.01250000, 0.00625000
1074, 0.16250000, 0.01250000, 0.01250000
1075, 0.16250000, 0.01250000, 0.01875000
1076, 0.16250000, 0.01250000, 0.02500000
1077, 0.16250000, 0.01250000, 0.03125000
1078, 0.16250000, 0.01250000, 0.03750000
1079, 0.16250000, 0.01250000, 0.04375000
1080, 0.16250000, 0.01250000, 0.05000000
1081, 0.16250000, 0.01875000, 0.00000000
1082, 0.16250000, 0.01875000, 0.00625000
1083, 0.16250000, 0.01875000, 0.01250000
1084, 0.16250000, 0.01875000, 0.01875000
1085, 0.16250000, 0.01875000, 0.02500000
1086, 0.16250000, 0.01875000, 0.03125000
1087, 0.16250000, 0.01875000, 0.03750000
1088, 0.16250000, 0.01875000, 0.04375000
1089, 0.16250000, 0.01875000, 0.05000000
1090, 0.16250000, 0.02500000, 0.00000000
1091, 0.16250000, 0.02500000, 0.00625000
1092, 0.16250000, 0.02500000, 0.01250000
1093, 0.16250000, 0.02500000, 0.01875000
1094, 0.16250000, 0.02500000, 0.02500000
1095, 0.16250000, 0.02500000, 0.03125000
1096, 0.16250000, 0.02500000, 0.03750000
1097, 0.16250000, 0.02500000, 0.04375000
1098, 0.16250000, 0.02500000, 0.05000000
1099, 0.16250000, 0.03125000, 0.00000000
1100, 0.16250000, 0.03125000, 0.00625000
1101, 0.16250000, 0.03125000, 0.01250000
1102, 0.16250000, 0.03125000, 0.01875000
1103, 0.16250000, 0.03125000, 0.02500000
1104, 0.16250000, 0.03125000, 0.03125000
1105, 0.16250000, 0.03125000, 0.03750000
1106, 0.16250000, 0.03125000, 0.04375000
1107, 0.16250000, 0.03125000, 0.05000000
1108, 0.16250000, 0.03750000, 0.00000000
1109, 0.16250000, 0.03750000, 0.00625000
1110, 0.16250000, 0.03750000, 0.01250000
1111, 0.16250000, 0.03750000, 0.01875000
1112, 0.16250000, 0.03750000, 0.02500000
1113, 0.16250000, 0.03750000, 0.03125000
1114, 0.16250000, 0.03750000, 0.03750000
1115, 0.16250000, 0.03750000, 0.04375000
1116, 0.16250000, 0.03750000, 0.05000000
1117, 0.16250000, 0.04375000, 0.00000000
1118, 0.16250000, 0.04375000, 0.00625000
1119, 0.16250000, 0.04375000, 0.01250000
1120, 0.16250000, 0.04375000, 0.01875000
1121, 0.16250000, 0.04375000, 0.02500000
1122, 0.16250000, 0.04375000, 0.03125000
1123, 0.16250000, 0.04375000, 0.03750000
1124, 0.16250000, 0.04375000, 0.04375000
1125, 0.16250000, 0.04375000, 0.05000000
1126, 0.16250000, 0.05000000, 0.00000000
1127, 0.16250000, 0.05000000, 0.00625000
1128, 0.16250000, 0.05000000, 0.01250000
1129, 0.16250000, 0.05000000, 0.01875000
1130, 0.16250000, 0.05000000, 0.02500000
1131, 0.16250000, 0.05000000, 0.03125000
1132, 0.16250000, 0.05000000, 0.03750000
1133, 0.16250000, 0.05000000, 0.04375000
1134, 0.16250000, 0.05000000, 0.05000000
1135, 0.17500000, 0.00000000, 0.00000000
1136, 0.17500000, 0.00000000, 0.00625000
1137, 0.17500000, 0.00000000, 0.01250000
1138, 0.17500000, 0.00000000, 0.01875000
1139, 0.17500000, 0.00000000, 0.02500000
1140, 0.17500000, 0.00000000, 0.03125000
1141, 0.17500000, 0.00000000, 0.03750000
1142, 0.17500000, 0.00000000, 0.04375000
1143, 0.17500000, 0.00000000, 0.05000000
1144, 0.17500000, 0.00625000, 0.00000000
1145, 0.17500000, 0.00625000, 0.00625000
1146, 0.17500000, 0.00625000, 0.01250000
1147, 0.17500000, 0.00625000, 0.01875000
1148, 0.17500000, 0.00625000, 0.02500000
1149, 0.17500000, 0.00625000, 0.03125000
1150, 0.17500000, 0.00625000, 0.03750000
1151, 0.17500000, 0.00625000, 0.04375000
1152, 0.17500000, 0.00625000, 0.05000000
1153, 0.17500000, 0.01250000, 0.00000000
1154, 0.17500000, 0.01250000, 0.00625000
1155, 0.17500000, 0.01250000, 0.01250000
1156, 0.17500000, 0.01250000, 0.01875000
1157, 0.17500000, 0.01250000, 0.02500000
1158, 0.17500000, 0.01250000, 0.03125000
1159, 0.17500000, 0.01250000, 0.03750000
1160, 0.17500000, 0.01250000, 0.04375000
1161, 0.17500000, 0.01250000, 0.05000000
1162, 0.17500000, 0.01875000, 0.00000000
1163, 0.17500000, 0.01875000, 0.00625000
1164, 0.17500000, 0.01875000, 0.01250000
1165, 0.17500000, 0.01875000, 0.01875000
1166, 0.17500000, 0.01875000, 0.02500000
1167, 0.17500000, 0.01875000, 0.03125000
1168, 0.17500000, 0.01875000, 0.03750000
1169, 0.17500000, 0.01875000, 0.04375000
1170, 0.17500000, 0.01875000, 0.05000000
1171, 0.17500000, 0.02500000, 0.00000000
1172, 0.17500000, 0.02500000, 0.00625000
1173, 0.17500000, 0.02500000, 0.01250000
1174, 0.17500000, 0.02500000, 0.01875000
1175, 0.17500000, 0.02500000, 0.02500000
1176, 0.17500000, 0.02500000, 0.03125000
1177, 0.17500000, 0.02500000, 0.03750000
1178, 0.17500000, 0.02500000, 0.04375000
1179, 0.17500000, 0.02500000, 0.05000000
1180, 0.17500000, 0.03125000, 0.00000000
1181, 0.17500000, 0.03125000, 0.00625000
1182, 0.17500000, 0.03125000, 0.01250000
1183, 0.17500000, 0.03125000, 0.01875000
1184, 0.17500000, 0.03125000, 0.02500000
1185, 0.17500000, 0.03125000, 0.03125000
1186, 0.17500000, 0.03125000, 0.03750000
1187, 0.17500000, 0.03125000, 0.04375000
1188, 0.17500000, 0.03125000, 0.05000000
1189, 0.17500000, 0.03750000, 0.00000000
1190, 0.17500000, 0.03750000, 0.00625000
1191, 0.17500000, 0.03750000, 0.01250000
1192, 0.17500000, 0.03750000, 0.01875000
1193, 0.17500000, 0.03750000, 0.02500000
1194, 0.17500000, 0.03750000, 0.03125000
1195, 0.17500000, 0.03750000, 0.03750000
1196, 0.17500000, 0.03750000, 0.04375000
1197, 0.17500000, 0.03750000, 0.05000000
1198, 0.17500000, 0.04375000, 0.00000000
1199, 0.17500000, 0.04375000, 0.00625000
1200, 0.17500000, 0.04375000, 0.01250000
1201, 0.17500000, 0.04375000, 0.01875000
1202, 0.17500000, 0.04375000, 0.02500000
1203, 0.17500000, 0.04375000, 0.03125000
1204, 0.17500000, 0.04375000, 0.03750000
1205, 0.17500000, 0.04375000, 0.04375000
1206, 0.17500000, 0.04375000, 0.05000000
1207, 0.17500000, 0.05000000, 0.00000000
1208, 0.17500000, 0.05000000, 0.00625000
1209, 0.17500000, 0.05000000, 0.01250000
1210, 0.17500000, 0.05000000, 0.01875000
1211, 0.17500000, 0.05000000, 0.02500000
1212, 0.17500000, 0.05000000, 0.03125000
1213, 0.17500000, 0.05000000, 0.03750000
1214, 0.17500000, 0.05000000, 0.04375000
1215, 0.17500000, 0.05000000, 0.05000000
1216, 0.18750000, 0.00000000, 0.00000000
1217, 0.18750000, 0.00000000, 0.00625000
1218, 0.18750000, 0.00000000, 0.01250000
1219, 0.18750000, 0.00000000, 0.01875000
1220, 0.18750000, 0.00000000, 0.02500000
1221, 0.18750000, 0.00000000, 0.03125000
1222, 0.18750000, 0.00000000, 0.03750000
1223, 0.18750000, 0.00000000, 0.04375000
1224, 0.18750000, 0.00000000, 0.05000000
1225, 0.18750000, 0.00625000, 0.00000000
1226, 0.18750000, 0.00625000, 0.00625000
1227, 0.18750000, 0.00625000, 0.01250000
1228, 0.18750000, 0.00625000, 0.01875000
1229, 0.18750000, 0.00625000, 0.02500000
1230, 0.18750000, 0.00625000, 0.03125000
1231, 0.18750000, 0.00625000, 0.03750000
1232, 0.18750000, 0.00625000, 0.04375000
1233, 0.18750000, 0.00625000, 0.05000000
1234, 0.18750000, 0.01250000, 0.00000000
1235, 0.18750000, 0.01250000, 0.00625000
1236, 0.18750000, 0.01250000, 0.01250000
1237, 0.18750000, 0.01250000, 0.01875000
1238, 0.18750000, 0.01250000, 0.02500000
1239, 0.18750000, 0.01250000, 0.03125000
1240, 0.18750000, 0.01250000, 0.03750000
1241, 0.18750000, 0.01250000, 0.04375000
1242, 0.18750000, 0.01250000, 0.05000000
1243, 0.18750000, 0.01875000, 0.00000000
1244, 0.18750000, 0.01875000, 0.00625000
1245, 0.18750000, 0.01875000, 0.01250000
1246, 0.18750000, 0.01875000, 0.01875000
1247, 0.18750000, 0.01875000, 0.02500000
1248, 0.18750000, 0.01875000, 0.03125000
1249, 0.18750000, 0.01875000, 0.03750000
1250, 0.18750000, 0.01875000, 0.04375000
1251, 0.18750000, 0.01875000, 0.05000000
1252, 0.18750000, 0.02500000, 0.00000000
1253, 0.18750000, 0.02500000, 0.00625000
1254, 0.18750000, 0.02500000, 0.01250000
1255, 0.18750000, 0.02500000, 0.01875000
1256, 0.18750000, 0.02500000, 0.02500000
1257, 0.18750000, 0.02500000, 0.03125000
1258, 0.18750000, 0.02500000, 0.03750000
1259, 0.18750000, 0.02500000, 0.04375000
1260, 0.18750000, 0.02500000, 0.05000000
1261, 0.18750000, 0.03125000, 0.00000000
1262, 0.18750000, 0.03125000, 0.00625000
1263, 0.18750000, 0.03125000, 0.01250000
1264, 0.18750000, 0.03125000, 0.01875000
1265, 0.18750000, 0.03125000, 0.02500000
1266, 0.18750000, 0.03125000, 0.03125000
1267, 0.18750000, 0.03125000, 0.03750000
1268, 0.18750000, 0.03125000, 0.04375000
1269, 0.18750000, 0.03125000, 0.05000000
1270, 0.18750000, 0.03750000, 0.00000000
1271, 0.18750000, 0.03750000, 0.00625000
1272, 0.18750000, 0.03750000, 0.01250000
1273, 0.18750000, 0.03750000, 0.01875000
1274, 0.18750000, 0.03750000, 0.02500000
1275, 0.18750000, 0.03750000, 0.03125000
1276, 0.18750000, 0.03750000, 0.03750000
1277, 0.18750000, 0.03750000, 0.04375000
1278, 0.18750000, 0.03750000, 0.05000000
1279, 0.18750000, 0.04375000, 0.00000000
1280, 0.18750000, 0.04375000, 0.00625000
1281, 0.18750000, 0.04375000, 0.01250000
1282, 0.18750000, 0.04375000, 0.01875000
1283, 0.18750000, 0.04375000, 0.02500000
1284, 0.18750000, 0.04375000, 0.03125000
1285, 0.18750000, 0.04375000, 0.03750000
1286, 0.18750000, 0.04375000, 0.04375000
1287, 0.18750000, 0.04375000, 0.05000000
1288, 0.18750000, 0.05000000, 0.00000000
1289, 0.18750000, 0.05000000, 0.00625000
1290, 0.18750000, 0.05000000, 0.01250000
1291, 0.18750000, 0.05000000, 0.01875000
1292, 0.18750000, 0.05000000, 0.02500000
1293, 0.18750000, 0.05000000, 0.03125000
1294, 0.18750000, 0.05000000, 0.03750000
1295, 0.18750000, 0.05000000, 0.04375000
1296, 0.18750000, 0.05000000, 0.05000000
1297, 0.20000000, 0.00000000, 0.00000000
1298, 0.20000000, 0.00000000, 0.00625000
1299, 0.20000000, 0.00000000, 0.01250000
1300, 0.20000000, 0.00000000, 0.01875000
1301, 0.20000000, 0.00000000, 0.02500000
1302, 0.20000000, 0.00000000, 0.03125000
1303, 0.20000000, 0.00000000, 0.03750000
1304, 0.20000000, 0.00000000, 0.04375000
1305, 0.20000000, 0.00000000, 0.05000000
1306, 0.20000000, 0.00625000, 0.00000000
1307, 0.20000000, 0.00625000, 0.00625000
1308, 0.20000000, 0.00625000, 0.01250000
1309, 0.20000000, 0.00625000, 0.01875000
1310, 0.20000000, 0.00625000, 0.02500000
1311, 0.20000000, 0.00625000, 0.03125000
1312, 0.20000000, 0.00625000, 0.03750000
1313, 0.20000000, 0.00625000, 0.04375000
1314, 0.20000000, 0.00625000, 0.05000000
1315, 0.20000000, 0.01250000, 0.00000000
1316, 0.20000000, 0.01250000, 0.00625000
1317, 0.20000000, 0.01250000, 0.01250000
1318, 0.20000000, 0.01250000, 0.01875000
1319, 0.20000000, 0.01250000, 0.02500000
1320, 0.20000000, 0.01250000, 0.03125000
1321, 0.20000000, 0.01250000, 0.03750000
1322, 0.20000000, 0.01250000, 0.04375000
1323, 0.20000000, 0.01250000, 0.05000000
1324, 0.20000000, 0.01875000, 0.00000000
1325, 0.20000000, 0.01875000, 0.00625000
1326, 0.20000000, 0.01875000, 0.01250000
1327, 0.20000000, 0.01875000, 0.01875000
1328, 0.20000000, 0.01875000, 0.02500000
1329, 0.20000000, 0.01875000, 0.03125000
1330, 0.20000000, 0.01875000, 0.03750000
1331, 0.20000000, 0.01875000, 0.04375000
1332, 0.20000000, 0.01875000, 0.05000000
1333, 0.20000000, 0.02500000, 0.00000000
1334, 0.20000000, 0.02500000, 0.00625000
1335, 0.20000000, 0.02500000, 0.01250000
1336, 0.20000000, 0.02500000, 0.01875000
1337, 0.20000000, 0.02500000, 0.02500000
1338, 0.20000000, 0.02500000, 0.03125000
1339, 0.20000000, 0.02500000, 0.03750000
1340, 0.20000000, 0.02500000, 0.04375000
1341, 0.20000000, 0.02500000, 0.05000000
1342, 0.20000000, 0.03125000, 0.00000000
1343, 0.20000000, 0.03125000, 0.00625000
1344, 0.20000000, 0.03125000, 0.01250000
1345, 0.20000000, 0.03125000, 0.01875000
1346, 0.20000000, 0.03125000, 0.02500000
1347, 0.20000000, 0.03125000, 0.03125000
1348, 0.20000000, 0.03125000, 0.03750000
1349, 0.20000000, 0.03125000, 0.04375000
1350, 0.20000000, 0.03125000, 0.05000000
1351, 0.20000000, 0.03750000, 0.00000000
1352, 0.20000000, 0.03750000, 0.00625000
1353, 0.20000000, 0.03750000, 0.01250000
1354, 0.20000000, 0.03750000, 0.01875000
1355, 0.20000000, 0.03750000, 0.02500000
1356, 0.20000000, 0.03750000, 0.03125000
1357, 0.20000000, 0.03750000, 0.03750000
1358, 0.20000000, 0.03750000, 0.04375000
1359, 0.20000000, 0.03750000, 0.05000000
1360, 0.20000000, 0.04375000, 0.00000000
1361, 0.20000000, 0.04375000, 0.00625000
1362, 0.20000000, 0.04375000, 0.01250000
1363, 0.20000000, 0.04375000, 0.01875000
1364, 0.20000000, 0.04375000, 0.02500000
1365, 0.20000000, 0.04375000, 0.03125000
1366, 0.20000000, 0.04375000, 0.03750000
1367, 0.20000000, 0.04375000, 0.04375000
1368, 0.20000000, 0.04375000, 0.05000000
1369, 0.20000000, 0.05000000, 0.00000000
1370, 0.20000000, 0.05000000, 0.00625000
1371, 0.20000000, 0.05000000, 0.01250000
1372, 0.20000000, 0.05000000, 0.01875000
1373, 0.20000000, 0.05000000, 0.02500000
1374, 0.20000000, 0.05000000, 0.03125000
1375, 0.20000000, 0.05000000, 0.03750000
1376, 0.20000000, 0.05000000, 0.04375000
1377, 0.20000000, 0.05000000, 0.05000000
1378, 0.21250000, 0.00000000, 0.00000000
1379, 0.21250000, 0.00000000, 0.00625000
1380, 0.21250000, 0.00000000, 0.01250000
1381, 0.21250000, 0.00000000, 0.01875000
1382, 0.21250000, 0.00000000, 0.02500000
1383, 0.21250000, 0.00000000, 0.03125000
1384, 0.21250000, 0.00000000, 0.03750000
1385, 0.21250000, 0.00000000, 0.04375000
1386, 0.21250000, 0.00000000, 0.05000000
1387, 0.21250000, 0.00625000, 0.00000000
1388, 0.21250000, 0.00625000, 0.00625000
1389, 0.21250000, 0.00625000, 0.01250000
1390, 0.21250000, 0.00625000, 0.01875000
1391, 0.21250000, 0.00625000, 0.02500000
1392, 0.21250000, 0.00625000, 0.03125000
1393, 0.21250000, 0.00625000, 0.03750000
1394, 0.21250000, 0.00625000, 0.04375000
1395, 0.21250000, 0.00625000, 0.05000000
1396, 0.21250000, 0.01250000, 0.00000000
1397, 0.21250000, 0.01250000, 0.00625000
1398, 0.21250000, 0.01250000, 0.01250000
1399, 0.21250000, 0.01250000, 0.01875000
1400, 0.21250000, 0.01250000, 0.02500000
1401, 0.21250000, 0.01250000, 0.03125000
1402, 0.21250000, 0.01250000, 0.03750000
1403, 0.21250000, 0.01250000, 0.04375000
1404, 0.21250000, 0.01250000, 0.05000000
1405, 0.21250000, 0.01875000, 0.00000000
1406, 0.21250000, 0.01875000, 0.00625000
1407, 0.21250000, 0.01875000, 0.01250000
1408, 0.21250000, 0.01875000, 0.01875000
1409, 0.21250000, 0.01875000, 0.02500000
1410, 0.21250000, 0.01875000, 0.03125000
1411, 0.21250000, 0.01875000, 0.03750000
1412, 0.21250000, 0.01875000, 0.04375000
1413, 0.21250000, 0.01875000, 0.05000000
1414, 0.21250000, 0.02500000, 0.00000000
1415, 0.21250000, 0.02500000, 0.00625000
1416, 0.21250000, 0.02500000, 0.01250000
1417, 0.21250000, 0.02500000, 0.01875000
1418, 0.21250000, 0.02500000, 0.02500000
1419, 0.21250000, 0.02500000, 0.03125000
1420, 0.21250000, 0.02500000, 0.03750000
1421, 0.21250000, 0.02500000, 0.04375000
1422, 0.21250000, 0.02500000, 0.05000000
1423, 0.21250000, 0.03125000, 0.00000000
1424, 0.21250000, 0.03125000, 0.00625000
1425, 0.21250000, 0.03125000, 0.01250000
1426, 0.21250000, 0.03125000, 0.01875000
1427, 0.21250000, 0.03125000, 0.02500000
1428, 0.21250000, 0.03125000, 0.03125000
1429, 0.21250000, 0.03125000, 0.03750000
1430, 0.21250000, 0.03125000, 0.04375000
1431, 0.21250000, 0.03125000, 0.05000000
1432, 0.21250000, 0.03750000, 0.00000000
1433, 0.21250000, 0.03750000, 0.00625000
1434, 0.21250000, 0.03750000, 0.01250000
1435, 0.21250000, 0.03750000, 0.01875000
1436, 0.21250000, 0.03750000, 0.02500000
1437, 0.21250000, 0.03750000, 0.03125000
1438, 0.21250000, 0.03750000, 0.03750000
1439, 0.21250000, 0.03750000, 0.04375000
1440, 0.21250000, 0.03750000, 0.05000000
1441, 0.21250000, 0.04375000, 0.00000000
1442, 0.21250000, 0.04375000, 0.00625000
1443, 0.21250000, 0.04375000, 0.01250000
1444, 0.21250000, 0.04375000, 0.01875000
1445, 0.21250000, 0.04375000, 0.02500000
1446, 0.21250000, 0.04375000, 0.03125000
1447, 0.21250000, 0.04375000, 0.03750000
1448, 0.21250000, 0.04375000, 0.04375000
1449, 0.21250000, 0.04375000, 0.05000000
1450, 0.21250000, 0.05000000, 0.00000000
1451, 0.21250000, 0.05000000, 0.00625000
1452, 0.21250000, 0.05000000, 0.01250000
1453, 0.21250000, 0.05000000, 0.01875000
1454, 0.21250000, 0.05000000, 0.02500000
1455, 0.21250000, 0.05000000, 0.03125000
1456, 0.21250000, 0.05000000, 0.03750000
1457, 0.21250000, 0.05000000, 0.04375000
1458, 0.21250000, 0.05000000, 0.05000000
1459, 0.22500000, 0.00000000, 0.00000000
1460, 0.22500000, 0.00000000, 0.00625000
1461, 0.22500000, 0.00000000, 0.01250000
1462, 0.22500000, 0.00000000, 0.01875000
1463, 0.22500000, 0.00000000, 0.02500000
1464, 0.22500000, 0.00000000, 0.03125000
1465, 0.22500000, 0.00000000, 0.03750000
1466, 0.22500000, 0.00000000, 0.04375000
1467, 0.22500000, 0.00000000, 0.05000000
1468, 0.22500000, 0.00625000, 0.00000000
1469, 0.22500000, 0.00625000, 0.00625000
1470, 0.22500000, 0.00625000, 0.01250000
1471, 0.22500000, 0.00625000, 0.01875000
1472, 0.22500000, 0.00625000, 0.02500000
1473, 0.22500000, 0.00625000, 0.03125000
1474, 0.22500000, 0.00625000, 0.03750000
1475, 0.22500000, 0.00625000, 0.04375000
1476, 0.22500000, 0.00625000, 0.05000000
1477, 0.22500000, 0.01250000, 0.00000000
1478, 0.22500000, 0.01250000, 0.00625000
1479, 0.22500000, 0.01250000, 0.01250000
1480, 0.22500000, 0.01250000, 0.01875000
1481, 0.22500000, 0.01250000, 0.02500000
1482, 0.22500000, 0.01250000, 0.03125000
1483, 0.22500000, 0.01250000, 0.03750000
1484, 0.22500000, 0.01250000, 0.04375000
1485, 0.22500000, 0.01250000, 0.05000000
1486, 0.22500000, 0.01875000, 0.00000000
1487, 0.22500000, 0.01875000, 0.00625000
1488, 0.22500000, 0.01875000, 0.01250000
1489, 0.22500000, 0.01875000, 0.01875000
1490, 0.22500000, 0.01875000, 0.02500000
1491, 0.22500000, 0.01875000, 0.03125000
1492, 0.22500000, 0.01875000, 0.03750000
1493, 0.22500000, 0.01875000, 0.04375000
1494, 0.22500000, 0.01875000, 0.05000000
1495, 0.22500000, 0.02500000, 0.00000000
1496, 0.22500000, 0.02500000, 0.00625000
1497, 0.22500000, 0.02500000, 0.01250000
1498, 0.22500000, 0.02500000, 0.01875000
1499, 0.22500000, 0.02500000, 0.02500000
1500, 0.22500000, 0.02500000, 0.03125000
1501, 0.22500000, 0.02500000, 0.03750000
1502, 0.22500000, 0.02500000, 0.04375000
1503, 0.22500000, 0.02500000, 0.05000000
1504, 0.22500000, 0.03125000, 0.00000000
1505, 0.22500000, 0.03125000, 0.00625000
1506, 0.22500000, 0.03125000, 0.01250000
1507, 0.22500000, 0.03125000, 0.01875000
1508, 0.22500000, 0.03125000, 0.02500000
1509, 0.22500000, 0.03125000, 0.03125000
1510, 0.22500000, 0.03125000, 0.03750000
1511, 0.22500000, 0.03125000, 0.04375000
1512, 0.22500000, 0.03125000, 0.05000000
1513, 0.22500000, 0.03750000, 0.00000000
1514, 0.22500000, 0.03750000, 0.00625000
1515, 0.22500000, 0.03750000, 0.01250000
1516, 0.22500000, 0.03750000, 0.01875000
1517, 0.22500000, 0.03750000, 0.02500000
1518, 0.22500000, 0.03750000, 0.03125000
1519, 0.22500000, 0.03750000, 0.03750000
1520, 0.22500000, 0.03750000, 0.04375000
1521, 0.22500000, 0.03750000, 0.05000000
1522, 0.22500000, 0.04375000, 0.00000000
1523, 0.22500000, 0.04375000, 0.00625000
1524, 0.22500000, 0.04375000, 0.01250000
1525, 0.22500000, 0.04375000, 0.01875000
1526, 0.22500000, 0.04375000, 0.02500000
1527, 0.22500000, 0.04375000, 0.03125000
1528, 0.22500000, 0.04375000, 0.03750000
1529, 0.22500000, 0.04375000, 0.04375000
1530, 0.22500000, 0.04375000, 0.05000000
1531, 0.22500000, 0.05000000, 0.00000000
1532, 0.22500000, 0.05000000, 0.00625000
1533, 0.22500000, 0.05000000, 0.01250000
1534, 0.22500000, 0.05000000, 0.01875000
1535, 0.22500000, 0.05000000, 0.02500000
1536, 0.22500000, 0.05000000, 0.03125000
1537, 0.22500000, 0.05000000, 0.03750000
1538, 0.22500000, 0.05000000, 0.04375000
1539, 0.22500000, 0.05000000, 0.05000000
1540, 0.23750000, 0.00000000, 0.00000000
1541, 0.23750000, 0.00000000, 0.00625000
1542, 0.23750000, 0.00000000, 0.01250000
1543, 0.23750000, 0.00000000, 0.01875000
1544, 0.23750000, 0.00000000, 0.02500000
1545, 0.23750000, 0.00000000, 0.03125000
1546, 0.23750000, 0.00000000, 0.03750000
1547, 0.23750000, 0.00000000, 0.04375000
1548, 0.23750000, 0.00000000, 0.05000000
1549, 0.23750000, 0.00625000, 0.00000000
1550, 0.23750000, 0.00625000, 0.00625000
1551, 0.23750000, 0.00625000, 0.01250000
1552, 0.23750000, 0.00625000, 0.01875000
1553, 0.23750000, 0.00625000, 0.02500000
1554, 0.23750000, 0.00625000, 0.03125000
1555, 0.23750000, 0.00625000, 0.03750000
1556, 0.23750000, 0.00625000, 0.04375000
1557, 0.23750000, 0.00625000, 0.05000000
1558, 0.23750000, 0.01250000, 0.00000000
1559, 0.23750000, 0.01250000, 0.00625000
1560, 0.23750000, 0.01250000, 0.01250000
1561, 0.23750000, 0.01250000, 0.01875000
1562, 0.23750000, 0.01250000, 0.02500000
1563, 0.23750000, 0.01250000, 0.03125000
1564, 0.23750000, 0.01250000, 0.03750000
1565, 0.23750000, 0.01250000, 0.04375000
1566, 0.23750000, 0.01250000, 0.05000000
1567, 0.23750000, 0.01875000, 0.00000000
1568, 0.23750000, 0.01875000, 0.00625000
1569, 0.23750000, 0.01875000, 0.01250000
1570, 0.23750000, 0.01875000, 0.01875000
1571, 0.23750000, 0.01875000, 0.02500000
1572, 0.23750000, 0.01875000, 0.03125000
1573, 0.23750000, 0.01875000, 0.03750000
1574, 0.23750000, 0.01875000, 0.04375000
1575, 0.23750000, 0.01875000, 0.05000000
1576, 0.23750000, 0.02500000, 0.00000000
1577, 0.23750000, 0.02500000, 0.00625000
1578, 0.23750000, 0.02500000, 0.01250000
1579, 0.23750000, 0.02500000, 0.01875000
1580, 0.23750000, 0.02500000, 0.02500000
1581, 0.23750000, 0.02500000, 0.03125000
1582, 0.23750000, 0.02500000, 0.03750000
1583, 0.23750000, 0.02500000, 0.04375000
1584, 0.23750000, 0.02500000, 0.05000000
1585, 0.23750000, 0.03125000, 0.00000000
1586, 0.23750000, 0.03125000, 0.00625000
1587, 0.23750000, 0.03125000, 0.01250000
1588, 0.23750000, 0.03125000, 0.01875000
1589, 0.23750000, 0.03125000, 0.02500000
1590, 0.23750000, 0.03125000, 0.03125000
1591, 0.23750000, 0.03125000, 0.03750000
1592, 0.23750000, 0.03125000, 0.04375000
1593, 0.23750000, 0.03125000, 0.05000000
1594, 0.23750000, 0.03750000, 0.00000000
1595, 0.23750000, 0.03750000, 0.00625000
1596, 0.23750000, 0.03750000, 0.01250000
1597, 0.23750000, 0.03750000, 0.01875000
1598, 0.23750000, 0.03750000, 0.02500000
1599, 0.23750000, 0.03750000, 0.03125000
1600, 0.23750000, 0.03750000, 0.03750000
1601, 0.23750000, 0.03750000, 0.04375000
1602, 0.23750000, 0.03750000, 0.05000000
1603, 0.23750000, 0.04375000, 0.00000000
1604, 0.23750000, 0.04375000, 0.00625000
1605, 0.23750000, 0.04375000, 0.01250000
1606, 0.23750000, 0.04375000, 0.01875000
1607, 0.23750000, 0.04375000, 0.02500000
1608, 0.23750000, 0.04375000, 0.03125000
1609, 0.23750000, 0.04375000, 0.03750000
1610, 0.23750000, 0.04375000, 0.04375000
1611, 0.23750000, 0.04375000, 0.05000000
1612, 0.23750000, 0.05000000, 0.00000000
1613, 0.23750000, 0.05000000, 0.00625000
1614, 0.23750000, 0.05000000, 0.01250000
1615, 0.23750000, 0.05000000, 0.01875000
1616, 0.23750000, 0.05000000, 0.02500000
1617, 0.23750000, 0.05000000, 0.03125000
1618, 0.23750000, 0.05000000, 0.03750000
1619, 0.23750000, 0.05000000, 0.04375000
1620, 0.23750000, 0.05000000, 0.05000000
1621, 0.25000000, 0.00000000, 0.00000000
1622, 0.25000000, 0.00000000, 0.00625000
1623, 0.25000000, 0.00000000, 0.01250000
1624, 0.25000000, 0.00000000, 0.01875000
1625, 0.25000000, 0.00000000, 0.02500000
1626, 0.25000000, 0.00000000, 0.03125000
1627, 0.25000000, 0.00000000, 0.03750000
1628, 0.25000000, 0.00000000, 0.04375000
1629, 0.25000000, 0.00000000, 0.05000000
1630, 0.25000000, 0.00625000, 0.00000000
1631, 0.25000000, 0.00625000, 0.00625000
1632, 0.25000000, 0.00625000, 0.01250000
1633, 0.25000000, 0.00625000, 0.01875000
1634, 0.25000000, 0.00625000, 0.02500000
1635, 0.25000000, 0.00625000, 0.03125000
1636, 0.25000000, 0.00625000, 0.03750000
1637, 0.25000000, 0.00625000, 0.04375000
1638, 0.25000000, 0.00625000, 0.05000000
1639, 0.25000000, 0.01250000, 0.00000000
1640, 0.25000000, 0.01250000, 0.00625000
1641, 0.25000000, 0.01250000, 0.01250000
1642, 0.25000000, 0.01250000, 0.01875000
1643, 0.25000000, 0.01250000, 0.02500000
1644, 0.25000000, 0.01250000, 0.03125000
1645, 0.25000000, 0.01250000, 0.03750000
1646, 0.25000000, 0.01250000, 0.04375000
1647, 0.25000000, 0.01250000, 0.05000000
1648, 0.25000000, 0.01875000, 0.00000000
1649, 0.25000000, 0.01875000, 0.00625000
1650, 0.25000000, 0.01875000, 0.01250000
1651, 0.25000000, 0.01875000, 0.01875000
1652, 0.25000000, 0.01875000, 0.02500000
1653, 0.25000000, 0.01875000, 0.03125000
1654, 0.25000000, 0.01875000, 0.03750000
1655, 0.25000000, 0.01875000, 0.04375000
1656, 0.25000000, 0.01875000, 0.05000000
1657, 0.25000000, 0.02500000, 0.00000000
1658, 0.25000000, 0.02500000, 0.00625000
1659, 0.25000000, 0.02500000, 0.01250000
1660, 0.25000000, 0.02500000, 0.01875000
1661, 0.25000000, 0.02500000, 0.02500000
1662, 0.25000000, 0.02500000, 0.03125000
1663, 0.25000000, 0.02500000, 0.03750000
1664, 0.25000000, 0.02500000, 0.04375000
1665, 0.25000000, 0.02500000, 0.05000000
1666, 0.25000000, 0.03125000, 0.00000000
1667, 0.25000000, 0.03125000, 0.00625000
1668, 0.25000000, 0.03125000, 0.01250000
1669, 0.25000000, 0.03125000, 0.01875000
1670, 0.25000000, 0.03125000, 0.02500000
1671, 0.25000000, 0.03125000, 0.03125000
1672, 0.25000000, 0.03125000, 0.03750000
1673, 0.25000000, 0.03125000, 0.04375000
1674, 0.25000000, 0.03125000, 0.05000000
1675, 0.25000000, 0.03750000, 0.00000000
1676, 0.25000000, 0.03750000, 0.00625000
1677, 0.25000000, 0.03750000, 0.01250000
1678, 0.25000000, 0.03750000, 0.01875000
1679, 0.25000000, 0.03750000, 0.02500000
1680, 0.25000000, 0.03750000, 0.03125000
1681, 0.25000000, 0.03750000, 0.03750000
1682, 0.25000000, 0.03750000, 0.04375000
1683, 0.25000000, 0.03750000, 0.05000000
1684, 0.25000000, 0.04375000, 0.00000000
1685, 0.25000000, 0.04375000, 0.00625000
1686, 0.25000000, 0.04375000, 0.01250000
1687, 0.25000000, 0.04375000, 0.01875000
1688, 0.25000000, 0.04375000, 0.02500000
1689, 0.25000000, 0.04375000, 0.03125000
1690, 0.25000000, 0.04375000, 0.03750000
1691, 0.25000000, 0.04375000, 0.04375000
1692, 0.25000000, 0.04375000, 0.05000000
1693, 0.25000000, 0.05000000, 0.00000000
1694, 0.25000000, 0.05000000, 0.00625000
1695, 0.25000000, 0.05000000, 0.01250000
1696, 0.25000000, 0.05000000, 0.01875000
1697, 0.25000000, 0.05000000, 0.02500000
1698, 0.25000000, 0.05000000, 0.03125000
1699, 0.25000000, 0.05000000, 0.03750000
1700, 0.25000000, 0.05000000, 0.04375000
1701, 0.25000000, 0.05000000, 0.05000000
1702, 0.26250000, 0.00000000, 0.00000000
1703, 0.26250000, 0.00000000, 0.00625000
1704, 0.26250000, 0.00000000, 0.01250000
1705, 0.26250000, 0.00000000, 0.01875000
1706, 0.26250000, 0.00000000, 0.02500000
1707, 0.26250000, 0.00000000, 0.03125000
1708, 0.26250000, 0.00000000, 0.03750000
1709, 0.26250000, 0.00000000, 0.04375000
1710, 0.26250000, 0.00000000, 0.05000000
1711, 0.26250000, 0.00625000, 0.00000000
1712, 0.26250000, 0.00625000, 0.00625000
1713, 0.26250000, 0.00625000, 0.01250000
1714, 0.26250000, 0.00625000, 0.01875000
1715, 0.26250000, 0.00625000, 0.02500000
1716, 0.26250000, 0.00625000, 0.03125000
1717, 0.26250000, 0.00625000, 0.03750000
1718, 0.26250000, 0.00625000, 0.04375000
1719, 0.26250000, 0.00625000, 0.05000000
1720, 0.26250000, 0.01250000, 0.00000000
1721, 0.26250000, 0.01250000, 0.00625000
1722, 0.26250000, 0.01250000, 0.01250000
1723, 0.26250000, 0.01250000, 0.01875000
1724, 0.26250000, 0.01250000, 0.02500000
1725, 0.26250000, 0.01250000, 0.03125000
1726, 0.26250000, 0.01250000, 0.03750000
1727, 0.26250000, 0.01250000, 0.04375000
1728, 0.26250000, 0.01250000, 0.05000000
1729, 0.26250000, 0.01875000, 0.00000000
1730, 0.26250000, 0.01875000, 0.00625000
1731, 0.26250000, 0.01875000, 0.01250000
1732, 0.26250000, 0.01875000, 0.01875000
1733, 0.26250000, 0.01875000, 0.02500000
1734, 0.26250000, 0.01875000, 0.03125000
1735, 0.26250000, 0.01875000, 0.03750000
1736, 0.26250000, 0.01875000, 0.04375000
1737, 0.26250000, 0.01875000, 0.05000000
1738, 0.26250000, 0.02500000, 0.00000000
1739, 0.26250000, 0.02500000, 0.00625000
1740, 0.26250000, 0.02500000, 0.01250000
1741, 0.26250000, 0.02500000, 0.01875000
1742, 0.26250000, 0.02500000, 0.02500000
1743, 0.26250000, 0.02500000, 0.03125000
1744, 0.26250000, 0.02500000, 0.03750000
1745, 0.26250000, 0.02500000, 0.04375000
1746, 0.26250000, 0.02500000, 0.05000000
1747, 0.26250000, 0.03125000, 0.00000000
1748, 0.26250000, 0.03125000, 0.00625000
1749, 0.26250000, 0.03125000, 0.01250000
1750, 0.26250000, 0.03125000, 0.01875000
1751, 0.26250000, 0.03125000, 0.02500000
1752, 0.26250000, 0.03125000, 0.03125000
1753, 0.26250000, 0.03125000, 0.03750000
1754, 0.26250000, 0.03125000, 0.04375000
1755, 0.26250000, 0.03125000, 0.05000000
1756, 0.26250000, 0.03750000, 0.00000000
1757, 0.26250000, 0.03750000, 0.00625000
1758, 0.26250000, 0.03750000, 0.01250000
1759, 0.26250000, 0.03750000, 0.01875000
1760, 0.26250000, 0.03750000, 0.02500000
1761, 0.26250000, 0.03750000, 0.03125000
1762, 0.26250000, 0.03750000, 0.03750000
1763, 0.26250000, 0.03750000, 0.04375000
1764, 0.26250000, 0.03750000, 0.05000000
1765, 0.26250000, 0.04375000, 0.00000000
1766, 0.26250000, 0.04375000, 0.00625000
1767, 0.26250000, 0.04375000, 0.01250000
1768, 0.26250000, 0.04375000, 0.01875000
1769, 0.26250000, 0.04375000, 0.02500000
1770, 0.26250000, 0.04375000, 0.03125000
1771, 0.26250000, 0.04375000, 0.03750000
1772, 0.26250000, 0.04375000, 0.04375000
1773, 0.26250000, 0.04375000, 0.05000000
1774, 0.26250000, 0.05000000, 0.00000000
1775, 0.26250000, 0.05000000, 0.00625000
1776, 0.26250000, 0.05000000, 0.01250000
1777, 0.26250000, 0.05000000, 0.01875000
1778, 0.26250000, 0.05000000, 0.02500000
1779, 0.26250000, 0.05000000, 0.03125000
1780, 0.26250000, 0.05000000, 0.03750000
1781, 0.26250000, 0.05000000, 0.04375000
1782, 0.26250000, 0.05000000, 0.05000000
1783, 0.27500000, 0.00000000, 0.00000000
1784, 0.27500000, 0.00000000, 0.00625000
1785, 0.27500000, 0.00000000, 0.01250000
1786, 0.27500000, 0.00000000, 0.01875000
1787, 0.27500000, 0.00000000, 0.02500000
1788, 0.27500000, 0.00000000, 0.03125000
1789, 0.27500000, 0.00000000, 0.03750000
1790, 0.27500000, 0.00000000, 0.04375000
1791, 0.27500000, 0.00000000, 0.05000000
1792, 0.27500000, 0.00625000, 0.00000000
1793, 0.27500000, 0.00625000, 0.00625000
1794, 0.27500000, 0.00625000, 0.01250000
1795, 0.27500000, 0.00625000, 0.01875000
1796, 0.27500000, 0.00625000, 0.02500000
1797, 0.27500000, 0.00625000, 0.03125000
1798, 0.27500000, 0.00625000, 0.03750000
1799, 0.27500000, 0.00625000, 0.04375000
1800, 0.27500000, 0.00625000, 0.05000000
1801, 0.27500000, 0.01250000, 0.00000000
1802, 0.27500000, 0.01250000, 0.00625000
1803, 0.27500000, 0.01250000, 0.01250000
1804, 0.27500000, 0.01250000, 0.01875000
1805, 0.27500000, 0.01250000, 0.02500000
1806, 0.27500000, 0.01250000, 0.03125000
1807, 0.27500000, 0.01250000, 0.03750000
1808, 0.27500000, 0.01250000, 0.04375000
1809, 0.27500000, 0.01250000, 0.05000000
1810, 0.27500000, 0.01875000, 0.00000000
1811, 0.27500000, 0.01875000, 0.00625000
1812, 0.27500000, 0.01875000, 0.01250000
1813, 0.27500000, 0.01875000, 0.01875000
1814, 0.27500000, 0.01875000, 0.02500000
1815, 0.27500000, 0.01875000, 0.03125000
1816, 0.27500000, 0.01875000, 0.03750000
1817, 0.27500000, 0.01875000, 0.04375000
1818, 0.27500000, 0.01875000, 0.05000000
1819, 0.27500000, 0.02500000, 0.00000000
1820, 0.27500000, 0.02500000, 0.00625000
1821, 0.27500000, 0.02500000, 0.01250000
1822, 0.27500000, 0.02500000, 0.01875000
1823, 0.27500000, 0.02500000, 0.02500000
1824, 0.27500000, 0.02500000, 0.03125000
1825, 0.27500000, 0.02500000, 0.03750000
1826, 0.27500000, 0.02500000, 0.04375000
1827, 0.27500000, 0.02500000, 0.05000000
1828, 0.27500000, 0.03125000, 0.00000000
1829, 0.27500000, 0.03125000, 0.00625000
1830, 0.27500000, 0.03125000, 0.01250000
1831, 0.27500000, 0.03125000, 0.01875000
1832, 0.27500000, 0.03125000, 0.02500000
1833, 0.27500000, 0.03125000, 0.03125000
1834, 0.27500000, 0.03125000, 0.03750000
1835, 0.27500000, 0.03125000, 0.04375000
1836, 0.27500000, 0.03125000, 0.05000000
1837, 0.27500000, 0.03750000, 0.00000000
1838, 0.27500000, 0.03750000, 0.00625000
1839, 0.27500000, 0.03750000, 0.01250000
1840, 0.27500000, 0.03750000, 0.01875000
1841, 0.27500000, 0.03750000, 0.02500000
1842, 0.27500000, 0.03750000, 0.03125000
1843, 0.27500000, 0.03750000, 0.03750000
1844, 0.27500000, 0.03750000, 0.04375000
1845, 0.27500000, 0.03750000, 0.05000000
1846, 0.27500000, 0.04375000, 0.00000000
1847, 0.27500000, 0.04375000, 0.00625000
1848, 0.27500000, 0.04375000, 0.01250000
1849, 0.27500000, 0.04375000, 0.01875000
1850, 0.27500000, 0.04375000, 0.02500000
1851, 0.27500000, 0.04375000, 0.03125000
1852, 0.27500000, 0.04375000, 0.03750000
1853, 0.27500000, 0.04375000, 0.04375000
1854, 0.27500000, 0.04375000, 0.05000000
1855, 0.27500000, 0.05000000, 0.00000000
1856, 0.27500000, 0.05000000, 0.00625000
1857, 0.27500000, 0.05000000, 0.01250000
1858, 0.27500000, 0.05000000, 0.01875000
1859, 0.27500000, 0.05000000, 0.02500000
1860, 0.27500000, 0.05000000, 0.03125000
1861, 0.27500000, 0.05000000, 0.03750000
1862, 0.27500000, 0.05000000, 0.04375000
1863, 0.27500000, 0.05000000, 0.05000000
1864, 0.28750000, 0.00000000, 0.00000000
1865, 0.28750000, 0.00000000, 0.00625000
1866, 0.28750000, 0.00000000, 0.01250000
1867, 0.28750000, 0.00000000, 0.01875000
1868, 0.28750000, 0.00000000, 0.02500000
1869, 0.28750000, 0.00000000, 0.03125000
1870, 0.28750000, 0.00000000, 0.03750000
1871, 0.28750000, 0.00000000, 0.04375000
1872, 0.28750000, 0.00000000, 0.05000000
1873, 0.28750000, 0.00625000, 0.00000000
1874, 0.28750000, 0.00625000, 0.00625000
1875, 0.28750000, 0.00625000, 0.01250000
1876, 0.28750000, 0.00625000, 0.01875000
1877, 0.28750000, 0.00625000, 0.02500000
1878, 0.28750000, 0.00625000, 0.03125000
1879, 0.28750000, 0.00625000, 0.03750000
1880, 0.28750000, 0.00625000, 0.04375000
1881, 0.28750000, 0.00625000, 0.05000000
1882, 0.28750000, 0.01250000, 0.00000000
1883, 0.28750000, 0.01250000, 0.00625000
1884, 0.28750000, 0.01250000, 0.01250000
1885, 0.28750000, 0.01250000, 0.01875000
1886, 0.28750000, 0.01250000, 0.02500000
1887, 0.28750000, 0.01250000, 0.03125000
1888, 0.28750000, 0.01250000, 0.03750000
1889, 0.28750000, 0.01250000, 0.04375000
1890, 0.28750000, 0.01250000, 0.05000000
1891, 0.28750000, 0.01875000, 0.00000000
1892, 0.28750000, 0.01875000, 0.00625000
1893, 0.28750000, 0.01875000, 0.01250000
1894, 0.28750000, 0.01875000, 0.01875000
1895, 0.28750000, 0.01875000, 0.02500000
1896, 0.28750000, 0.01875000, 0.03125000
1897, 0.28750000, 0.01875000, 0.03750000
1898, 0.28750000, 0.01875000, 0.04375000
1899, 0.28750000, 0.01875000, 0.05000000
1900, 0.28750000, 0.02500000, 0.00000000
1901, 0.28750000, 0.02500000, 0.00625000
1902, 0.28750000, 0.02500000, 0.01250000
1903, 0.28750000, 0.02500000, 0.01875000
1904, 0.28750000, 0.02500000, 0.02500000
1905, 0.28750000, 0.02500000, 0.03125000
1906, 0.28750000, 0.02500000, 0.03750000
1907, 0.28750000, 0.02500000, 0.04375000
1908, 0.28750000, 0.02500000, 0.05000000
1909, 0.28750000, 0.03125000, 0.00000000
1910, 0.28750000, 0.03125000, 0.00625000
1911, 0.28750000, 0.03125000, 0.01250000
1912, 0.28750000, 0.03125000, 0.01875000
1913, 0.28750000, 0.03125000, 0.02500000
1914, 0.28750000, 0.03125000, 0.03125000
1915, 0.28750000, 0.03125000, 0.03750000
1916, 0.28750000, 0.03125000, 0.04375000
1917, 0.28750000, 0.03125000, 0.05000000
1918, 0.28750000, 0.03750000, 0.00000000
1919, 0.28750000, 0.03750000, 0.00625000
1920, 0.28750000, 0.03750000, 0.01250000
1921, 0.28750000, 0.03750000, 0.01875000
1922, 0.28750000, 0.03750000, 0.02500000
1923, 0.28750000, 0.03750000, 0.03125000
1924, 0.28750000, 0.03750000, 0.03750000
1925, 0.28750000, 0.03750000, 0.04375000
1926, 0.28750000, 0.03750000, 0.05000000
1927, 0.28750000, 0.04375000, 0.00000000
1928, 0.28750000, 0.04375000, 0.00625000
1929, 0.28750000, 0.04375000, 0.01250000
1930, 0.28750000, 0.04375000, 0.01875000
1931, 0.28750000, 0.04375000, 0.02500000
1932, 0.28750000, 0.04375000, 0.03125000
1933, 0.28750000, 0.04375000, 0.03750000
1934, 0.28750000, 0.04375000, 0.04375000
1935, 0.28750000, 0.04375000, 0.05000000
1936, 0.28750000, 0.05000000, 0.00000000
1937, 0.28750000, 0.05000000, 0.00625000
1938, 0.28750000, 0.05000000, 0.01250000
1939, 0.28750000, 0.05000000, 0.01875000
1940, 0.28750000, 0.05000000, 0.02500000
1941, 0.28750000, 0.05000000, 0.03125000
1942, 0.28750000, 0.05000000, 0.03750000
1943, 0.28750000, 0.05000000, 0.04375000
1944, 0.28750000, 0.05000000, 0.05000000
1945, 0.30000000, 0.00000000, 0.00000000
1946, 0.30000000, 0.00000000, 0.00625000
1947, 0.30000000, 0.00000000, 0.01250000
1948, 0.30000000, 0.00000000, 0.01875000
1949, 0.30000000, 0.00000000, 0.02500000
1950, 0.30000000, 0.00000000, 0.03125000
1951, 0.30000000, 0.00000000, 0.03750000
1952, 0.30000000, 0.00000000, 0.04375000
1953, 0.30000000, 0.00000000, 0.05000000
1954, 0.30000000, 0.00625000, 0.00000000
1955, 0.30000000, 0.00625000, 0.00625000
1956, 0.30000000, 0.00625000, 0.01250000
1957, 0.30000000, 0.00625000, 0.01875000
1958, 0.30000000, 0.00625000, 0.02500000
1959, 0.30000000, 0.00625000, 0.03125000
1960, 0.30000000, 0.00625000, 0.03750000
1961, 0.30000000, 0.00625000, 0.04375000
1962, 0.30000000, 0.00625000, 0.05000000
1963, 0.30000000, 0.01250000, 0.00000000
1964, 0.30000000, 0.01250000, 0.00625000
1965, 0.30000000, 0.01250000, 0.01250000
1966, 0.30000000, 0.01250000, 0.01875000
1967, 0.30000000, 0.01250000, 0.02500000
1968, 0.30000000, 0.01250000, 0.03125000
1969, 0.30000000, 0.01250000, 0.03750000
1970, 0.30000000, 0.01250000, 0.04375000
1971, 0.30000000, 0.01250000, 0.05000000
1972, 0.30000000, 0.01875000, 0.00000000
1973, 0.30000000, 0.01875000, 0.00625000
1974, 0.30000000, 0.01875000, 0.01250000
1975, 0.30000000, 0.01875000, 0.01875000
1976, 0.30000000, 0.01875000, 0.02500000
1977, 0.30000000, 0.01875000, 0.03125000
1978, 0.30000000, 0.01875000, 0.03750000
1979, 0.30000000, 0.01875000, 0.04375000
1980, 0.30000000, 0.01875000, 0.05000000
1981, 0.30000000, 0.02500000, 0.00000000
1982, 0.30000000, 0.02500000, 0.00625000
1983, 0.30000000, 0.02500000, 0.01250000
1984, 0.30000000, 0.02500000, 0.01875000
1985, 0.30000000, 0.02500000, 0.02500000
1986, 0.30000000, 0.02500000, 0.03125000
1987, 0.30000000, 0.02500000, 0.03750000
1988, 0.30000000, 0.02500000, 0.04375000
1989, 0.30000000, 0.02500000, 0.05000000
1990, 0.30000000, 0.03125000, 0.00000000
1991, 0.30000000, 0.03125000, 0.00625000
1992, 0.30000000, 0.03125000, 0.01250000
1993, 0.30000000, 0.03125000, 0.01875000
1994, 0.30000000, 0.03125000, 0.02500000
1995, 0.30000000, 0.03125000, 0.03125000
1996, 0.30000000, 0.03125000, 0.03750000
1997, 0.30000000, 0.03125000, 0.04375000
1998, 0.30000000, 0.03125000, 0.05000000
1999, 0.30000000, 0.03750000, 0.00000000
2000, 0.30000000, 0.03750000, 0.00625000
2001, 0.30000000, 0.03750000, 0.01250000
2002, 0.30000000, 0.03750000, 0.01875000
2003, 0.30000000, 0.03750000, 0.02500000
2004, 0.30000000, 0.03750000, 0.03125000
2005, 0.30000000, 0.03750000, 0.03750000
2006, 0.30000000, 0.03750000, 0.04375000
2007, 0.30000000, 0.03750000, 0.05000000
2008, 0.30000000, 0.04375000, 0.00000000
2009, 0.30000000, 0.04375000, 0.00625000
2010, 0.30000000, 0.04375000, 0.01250000
2011, 0.30000000, 0.04375000, 0.01875000
2012, 0.30000000, 0.04375000, 0.02500000
2013, 0.30000000, 0.04375000, 0.03125000
2014, 0.30000000, 0.04375000, 0.03750000
2015, 0.30000000, 0.04375000, 0.04375000
2016, 0.30000000, 0.04375000, 0.05000000
2017, 0.30000000, 0.05000000, 0.00000000
2018, 0.30000000, 0.05000000, 0.00625000
2019, 0.30000000, 0.05000000, 0.01250000
2020, 0.30000000, 0.05000000, 0.01875000
2021, 0.30000000, 0.05000000, 0.02500000
2022, 0.30000000, 0.05000000, 0.03125000
2023, 0.30000000, 0.05000000, 0.03750000
2024, 0.30000000, 0.05000000, 0.04375000
2025, 0.30000000, 0.05000000, 0.05000000
2026, 0.31250000, 0.00000000, 0.00000000
2027, 0.31250000, 0.00000000, 0.00625000
2028, 0.31250000, 0.00000000, 0.01250000
2029, 0.31250000, 0.00000000, 0.01875000
2030, 0.31250000, 0.00000000, 0.02500000
2031, 0.31250000, 0.00000000, 0.03125000
2032, 0.31250000, 0.00000000, 0.03750000
2033, 0.31250000, 0.00000000, 0.04375000
2034, 0.31250000, 0.00000000, 0.05000000
2035, 0.31250000, 0.00625000, 0.00000000
2036, 0.31250000, 0.00625000, 0.00625000
2037, 0.31250000, 0.00625000, 0.01250000
2038, 0.31250000, 0.00625000, 0.01875000
2039, 0.31250000, 0.00625000, 0.02500000
2040, 0.31250000, 0.00625000, 0.03125000
2041, 0.31250000, 0.00625000, 0.03750000
2042, 0.31250000, 0.00625000, 0.04375000
2043, 0.31250000, 0.00625000, 0.05000000
2044, 0.31250000, 0.01250000, 0.00000000
2045, 0.31250000, 0.01250000, 0.00625000
2046, 0.31250000, 0.01250000, 0.01250000
2047, 0.31250000, 0.01250000, 0.01875000
2048, 0.31250000, 0.01250000, 0.02500000
2049, 0.31250000, 0.01250000, 0.03125000
2050, 0.31250000, 0.01250000, 0.03750000
2051, 0.31250000, 0.01250000, 0.04375000
2052, 0.31250000, 0.01250000, 0.05000000
2053, 0.31250000, 0.01875000, 0.00000000
2054, 0.31250000, 0.01875000, 0.00625000
2055, 0.31250000, 0.01875000, 0.01250000
2056, 0.31250000, 0.01875000, 0.01875000
2057, 0.31250000, 0.01875000, 0.02500000
2058, 0.31250000, 0.01875000, 0.03125000
2059, 0.31250000, 0.01875000, 0.03750000
2060, 0.31250000, 0.01875000, 0.04375000
2061, 0.31250000, 0.01875000, 0.05000000
2062, 0.31250000, 0.02500000, 0.00000000
2063, 0.31250000, 0.02500000, 0.00625000
2064, 0.31250000, 0.02500000, 0.01250000
2065, 0.31250000, 0.02500000, 0.01875000
2066, 0.31250000, 0.02500000, 0.02500000
2067, 0.31250000, 0.02500000, 0.03125000
2068, 0.31250000, 0.02500000, 0.03750000
2069, 0.31250000, 0.02500000, 0.04375000
2070, 0.31250000, 0.02500000, 0.05000000
2071, 0.31250000, 0.03125000, 0.00000000
2072, 0.31250000, 0.03125000, 0.00625000
2073, 0.31250000, 0.03125000, 0.01250000
2074, 0.31250000, 0.03125000, 0.01875000
2075, 0.31250000, 0.03125000, 0.02500000
2076, 0.31250000, 0.03125000, 0.03125000
2077, 0.31250000, 0.03125000, 0.03750000
2078, 0.31250000, 0.03125000, 0.04375000
2079, 0.31250000, 0.03125000, 0.05000000
2080, 0.31250000, 0.03750000, 0.00000000
2081, 0.31250000, 0.03750000, 0.00625000
2082, 0.31250000, 0.03750000, 0.01250000
2083, 0.31250000, 0.03750000, 0.01875000
2084, 0.31250000, 0.03750000, 0.02500000
2085, 0.31250000, 0.03750000, 0.03125000
2086, 0.31250000, 0.03750000, 0.03750000
2087, 0.31250000, 0.03750000, 0.04375000
2088, 0.31250000, 0.03750000, 0.05000000
2089, 0.31250000, 0.04375000, 0.00000000
2090, 0.31250000, 0.04375000, 0.00625000
2091, 0.31250000, 0.04375000, 0.01250000
2092, 0.31250000, 0.04375000, 0.01875000
2093, 0.31250000, 0.04375000, 0.02500000
2094, 0.31250000, 0.04375000, 0.03125000
2095, 0.31250000, 0.04375000, 0.03750000
2096, 0.31250000, 0.04375000, 0.04375000
2097, 0.31250000, 0.04375000, 0.05000000
2098, 0.31250000, 0.05000000, 0.00000000
2099, 0.31250000, 0.05000000, 0.00625000
2100, 0.31250000, 0.05000000, 0.01250000
2101, 0.31250000, 0.05000000, 0.01875000
2102, 0.31250000, 0.05000000, 0.02500000
2103, 0.31250000, 0.05000000, 0.03125000
2104, 0.31250000, 0.05000000, 0.03750000
2105, 0.31250000, 0.05000000, 0.04375000
2106, 0.31250000, 0.05000000, 0.05000000
2107, 0.32500000, 0.00000000, 0.00000000
2108, 0.32500000, 0.00000000, 0.00625000
2109, 0.32500000, 0.00000000, 0.01250000
2110, 0.32500000, 0.00000000, 0.01875000
2111, 0.32500000, 0.00000000, 0.02500000
2112, 0.32500000, 0.00000000, 0.03125000
2113, 0.32500000, 0.00000000, 0.03750000
2114, 0.32500000, 0.00000000, 0.04375000
2115, 0.32500000, 0.00000000, 0.05000000
2116, 0.32500000, 0.00625000, 0.00000000
2117, 0.32500000, 0.00625000, 0.00625000
2118, 0.32500000, 0.00625000, 0.01250000
2119, 0.32500000, 0.00625000, 0.01875000
2120, 0.32500000, 0.00625000, 0.02500000
2121, 0.32500000, 0.00625000, 0.03125000
2122, 0.32500000, 0.00625000, 0.03750000
2123, 0.32500000, 0.00625000, 0.04375000
2124, 0.32500000, 0.00625000, 0.05000000
2125, 0.32500000, 0.01250000, 0.00000000
2126, 0.32500000, 0.01250000, 0.00625000
2127, 0.32500000, 0.01250000, 0.01250000
2128, 0.32500000, 0.01250000, 0.01875000
2129, 0.32500000, 0.01250000, 0.02500000
2130, 0.32500000, 0.01250000, 0.03125000
2131, 0.32500000, 0.01250000, 0.03750000
2132, 0.32500000, 0.01250000, 0.04375000
2133, 0.32500000, 0.01250000, 0.05000000
2134, 0.32500000, 0.01875000, 0.00000000
2135, 0.32500000, 0.01875000, 0.00625000
2136, 0.32500000, 0.01875000, 0.01250000
2137, 0.32500000, 0.01875000, 0.01875000
2138, 0.32500000, 0.01875000, 0.02500000
2139, 0.32500000, 0.01875000, 0.03125000
2140, 0.32500000, 0.01875000, 0.03750000
2141, 0.32500000, 0.01875000, 0.04375000
2142, 0.32500000, 0.01875000, 0.05000000
2143, 0.32500000, 0.02500000, 0.00000000
2144, 0.32500000, 0.02500000, 0.00625000
2145, 0.32500000, 0.02500000, 0.01250000
2146, 0.32500000, 0.02500000, 0.01875000
2147, 0.32500000, 0.02500000, 0.02500000
2148, 0.32500000, 0.02500000, 0.03125000
2149, 0.32500000, 0.02500000, 0.03750000
2150, 0.32500000, 0.02500000, 0.04375000
2151, 0.32500000, 0.02500000, 0.05000000
2152, 0.32500000, 0.03125000, 0.00000000
2153, 0.32500000, 0.03125000, 0.00625000
2154, 0.32500000, 0.03125000, 0.01250000
2155, 0.32500000, 0.03125000, 0.01875000
2156, 0.32500000, 0.03125000, 0.02500000
2157, 0.32500000, 0.03125000, 0.03125000
2158, 0.32500000, 0.03125000, 0.03750000
2159, 0.32500000, 0.03125000, 0.04375000
2160, 0.32500000, 0.03125000, 0.05000000
2161, 0.32500000, 0.03750000, 0.00000000
2162, 0.32500000, 0.03750000, 0.00625000
2163, 0.32500000, 0.03750000, 0.01250000
2164, 0.32500000, 0.03750000, 0.01875000
2165, 0.32500000, 0.03750000, 0.02500000
2166, 0.32500000, 0.03750000, 0.03125000
2167, 0.32500000, 0.03750000, 0.03750000
2168, 0.32500000, 0.03750000, 0.04375000
2169, 0.32500000, 0.03750000, 0.05000000
2170, 0.32500000, 0.04375000, 0.00000000
2171, 0.32500000, 0.04375000, 0.00625000
2172, 0.32500000, 0.04375000, 0.01250000
2173, 0.32500000, 0.04375000, 0.01875000
2174, 0.32500000, 0.04375000, 0.02500000
2175, 0.32500000, 0.04375000, 0.03125000
2176, 0.32500000, 0.04375000, 0.03750000
2177, 0.32500000, 0.04375000, 0.04375000
2178, 0.32500000, 0.04375000, 0.05000000
2179, 0.32500000, 0.05000000, 0.00000000
2180, 0.32500000, 0.05000000, 0.00625000
2181, 0.32500000, 0.05000000, 0.01250000
2182, 0.32500000, 0.05000000, 0.01875000
2183, 0.32500000, 0.05000000, 0.02500000
2184, 0.32500000, 0.05000000, 0.03125000
2185, 0.32500000, 0.05000000, 0.03750000
2186, 0.32500000, 0.05000000, 0.04375000
2187, 0.32500000, 0.05000000, 0.05000000
2188, 0.33750000, 0.00000000, 0.00000000
2189, 0.33750000, 0.00000000, 0.00625000
2190, 0.33750000, 0.00000000, 0.01250000
2191, 0.33750000, 0.00000000, 0.01875000
2192, 0.33750000, 0.00000000, 0.02500000
2193, 0.33750000, 0.00000000, 0.03125000
2194, 0.33750000, 0.00000000, 0.03750000
2195, 0.33750000, 0.00000000, 0.04375000
2196, 0.33750000, 0.00000000, 0.05000000
2197, 0.33750000, 0.00625000, 0.00000000
2198, 0.33750000, 0.00625000, 0.00625000
2199, 0.33750000, 0.00625000, 0.01250000
2200, 0.33750000, 0.00625000, 0.01875000
2201, 0.33750000, 0.00625000, 0.02500000
2202, 0.33750000, 0.00625000, 0.03125000
2203, 0.33750000, 0.00625000, 0.03750000
2204, 0.33750000, 0.00625000, 0.04375000
2205, 0.33750000, 0.00625000, 0.05000000
2206, 0.33750000, 0.01250000, 0.00000000
2207, 0.33750000, 0.01250000, 0.00625000
2208, 0.33750000, 0.01250000, 0.01250000
2209, 0.33750000, 0.01250000, 0.01875000
2210, 0.33750000, 0.01250000, 0.02500000
2211, 0.33750000, 0.01250000, 0.03125000
2212, 0.33750000, 0.01250000, 0.03750000
2213, 0.33750000, 0.01250000, 0.04375000
2214, 0.33750000, 0.01250000, 0.05000000
2215, 0.33750000, 0.01875000, 0.00000000
2216, 0.33750000, 0.01875000, 0.00625000
2217, 0.33750000, 0.01875000, 0.01250000
2218, 0.33750000, 0.01875000, 0.01875000
2219, 0.33750000, 0.01875000, 0.02500000
2220, 0.33750000, 0.01875000, 0.03125000
2221, 0.33750000, 0.01875000, 0.03750000
2222, 0.33750000, 0.01875000, 0.04375000
2223, 0.33750000, 0.01875000, 0.05000000
2224, 0.33750000, 0.02500000, 0.00000000
2225, 0.33750000, 0.02500000, 0.00625000
2226, 0.33750000, 0.02500000, 0.01250000
2227, 0.33750000, 0.02500000, 0.01875000
2228, 0.33750000, 0.02500000, 0.02500000
2229, 0.33750000, 0.02500000, 0.03125000
2230, 0.33750000, 0.02500000, 0.03750000
2231, 0.33750000, 0.02500000, 0.04375000
2232, 0.33750000, 0.02500000, 0.05000000
2233, 0.33750000, 0.03125000, 0.00000000
2234, 0.33750000, 0.03125000, 0.00625000
2235, 0.33750000, 0.03125000, 0.01250000
2236, 0.33750000, 0.03125000, 0.01875000
2237, 0.33750000, 0.03125000, 0.02500000
2238, 0.33750000, 0.03125000, 0.03125000
2239, 0.33750000, 0.03125000, 0.03750000
2240, 0.33750000, 0.03125000, 0.04375000
2241, 0.33750000, 0.03125000, 0.05000000
2242, 0.33750000, 0.03750000, 0.00000000
2243, 0.33750000, 0.03750000, 0.00625000
2244, 0.33750000, 0.03750000, 0.01250000
2245, 0.33750000, 0.03750000, 0.01875000
2246, 0.33750000, 0.03750000, 0.02500000
2247, 0.33750000, 0.03750000, 0.03125000
2248, 0.33750000, 0.03750000, 0.03750000
2249, 0.33750000, 0.03750000, 0.04375000
2250, 0.33750000, 0.03750000, 0.05000000
2251, 0.33750000, 0.04375000, 0.00000000
2252, 0.33750000, 0.04375000, 0.00625000
2253, 0.33750000, 0.04375000, 0.01250000
2254, 0.33750000, 0.04375000, 0.01875000
2255, 0.33750000, 0.04375000, 0.02500000
2256, 0.33750000, 0.04375000, 0.03125000
2257, 0.33750000, 0.04375000, 0.03750000
2258, 0.33750000, 0.04375000, 0.04375000
2259, 0.33750000, 0.04375000, 0.05000000
2260, 0.33750000, 0.05000000, 0.00000000
2261, 0.33750000, 0.05000000, 0.00625000
2262, 0.33750000, 0.05000000, 0.01250000
2263, 0.33750000, 0.05000000, 0.01875000
2264, 0.33750000, 0.05000000, 0.02500000
2265, 0.33750000, 0.05000000, 0.03125000
2266, 0.33750000, 0.05000000, 0.03750000
2267, 0.33750000, 0.05000000, 0.04375000
2268, 0.33750000, 0.05000000, 0.05000000
2269, 0.35000000, 0.00000000, 0.00000000
2270, 0.35000000, 0.00000000, 0.00625000
2271, 0.35000000, 0.00000000, 0.01250000
2272, 0.35000000, 0.00000000, 0.01875000
2273, 0.35000000, 0.00000000, 0.02500000
2274, 0.35000000, 0.00000000, 0.03125000
2275, 0.35000000, 0.00000000, 0.03750000
2276, 0.35000000, 0.00000000, 0.04375000
2277, 0.35000000, 0.00000000, 0.05000000
2278, 0.35000000, 0.00625000, 0.00000000
2279, 0.35000000, 0.00625000, 0.00625000
2280, 0.35000000, 0.00625000, 0.01250000
2281, 0.35000000, 0.00625000, 0.01875000
2282, 0.35000000, 0.00625000, 0.02500000
2283, 0.35000000, 0.00625000, 0.03125000
2284, 0.35000000, 0.00625000, 0.03750000
2285, 0.35000000, 0.00625000, 0.04375000
2286, 0.35000000, 0.00625000, 0.05000000
2287, 0.35000000, 0.01250000, 0.00000000
2288, 0.35000000, 0.01250000, 0.00625000
2289, 0.35000000, 0.01250000, 0.01250000
2290, 0.35000000, 0.01250000, 0.01875000
2291, 0.35000000, 0.01250000, 0.02500000
2292, 0.35000000, 0.01250000, 0.03125000
2293, 0.35000000, 0.01250000, 0.03750000
2294, 0.35000000, 0.01250000, 0.04375000
2295, 0.35000000, 0.01250000, 0.05000000
2296, 0.35000000, 0.01875000, 0.00000000
2297, 0.35000000, 0.01875000, 0.00625000
2298, 0.35000000, 0.01875000, 0.01250000
2299, 0.35000000, 0.01875000, 0.01875000
2300, 0.35000000, 0.01875000, 0.02500000
2301, 0.35000000, 0.01875000, 0.03125000
2302, 0.35000000, 0.01875000, 0.03750000
2303, 0.35000000, 0.01875000, 0.04375000
2304, 0.35000000, 0.01875000, 0.05000000
2305, 0.35000000, 0.02500000, 0.00000000
2306, 0.35000000, 0.02500000, 0.00625000
2307, 0.35000000, 0.02500000, 0.01250000
2308, 0.35000000, 0.02500000, 0.01875000
2309, 0.35000000, 0.02500000, 0.02500000
2310, 0.35000000, 0.02500000, 0.03125000
2311, 0.35000000, 0.02500000, 0.03750000
2312, 0.35000000, 0.02500000, 0.04375000
2313, 0.35000000, 0.02500000, 0.05000000
2314, 0.35000000, 0.03125000, 0.00000000
2315, 0.35000000, 0.03125000, 0.00625000
2316, 0.35000000, 0.03125000, 0.01250000
2317, 0.35000000, 0.03125000, 0.01875000
2318, 0.35000000, 0.03125000, 0.02500000
2319, 0.35000000, 0.03125000, 0.03125000
2320, 0.35000000, 0.03125000, 0.03750000
2321, 0.35000000, 0.03125000, 0.04375000
2322, 0.35000000, 0.03125000, 0.05000000
2323, 0.35000000, 0.03750000, 0.00000000
2324, 0.35000000, 0.03750000, 0.00625000
2325, 0.35000000, 0.03750000, 0.01250000
2326, 0.35000000, 0.03750000, 0.01875000
2327, 0.35000000, 0.03750000, 0.02500000
2328, 0.35000000, 0.03750000, 0.03125000
2329, 0.35000000, 0.03750000, 0.03750000
2330, 0.35000000, 0.03750000, 0.04375000
2331, 0.35000000, 0.03750000, 0.05000000
2332, 0.35000000, 0.04375000, 0.00000000
2333, 0.35000000, 0.04375000, 0.00625000
2334, 0.35000000, 0.04375000, 0.01250000
2335, 0.35000000, 0.04375000, 0.01875000
2336, 0.35000000, 0.04375000, 0.02500000
2337, 0.35000000, 0.04375000, 0.03125000
2338, 0.35000000, 0.04375000, 0.03750000
2339, 0.35000000, 0.04375000, 0.04375000
2340, 0.35000000, 0.04375000, 0.05000000
2341, 0.35000000, 0.05000000, 0.00000000
2342, 0.35000000, 0.05000000, 0.00625000
2343, 0.35000000, 0.05000000, 0.01250000
2344, 0.35000000, 0.05000000, 0.01875000
2345, 0.35000000, 0.05000000, 0.02500000
2346, 0.35000000, 0.05000000, 0.03125000
2347, 0.35000000, 0.05000000, 0.03750000
2348, 0.35000000, 0.05000000, 0.04375000
2349, 0.35000000, 0.05000000, 0.05000000
2350, 0.36250000, 0.00000000, 0.00000000
2351, 0.36250000, 0.00000000, 0.00625000
2352, 0.36250000, 0.00000000, 0.01250000
2353, 0.36250000, 0.00000000, 0.01875000
2354, 0.36250000, 0.00000000, 0.02500000
2355, 0.36250000, 0.00000000, 0.03125000
2356, 0.36250000, 0.00000000, 0.03750000
2357, 0.36250000, 0.00000000, 0.04375000
2358, 0.36250000, 0.00000000, 0.05000000
2359, 0.36250000, 0.00625000, 0.00000000
2360, 0.36250000, 0.00625000, 0.00625000
2361, 0.36250000, 0.00625000, 0.01250000
2362, 0.36250000, 0.00625000, 0.01875000
2363, 0.36250000, 0.00625000, 0.02500000
2364, 0.36250000, 0.00625000, 0.03125000
2365, 0.36250000, 0.00625000, 0.03750000
2366, 0.36250000, 0.00625000, 0.04375000
2367, 0.36250000, 0.00625000, 0.05000000
2368, 0.36250000, 0.01250000, 0.00000000
2369, 0.36250000, 0.01250000, 0.00625000
2370, 0.36250000, 0.01250000, 0.01250000
2371, 0.36250000, 0.01250000, 0.01875000
2372, 0.36250000, 0.01250000, 0.02500000
2373, 0.36250000, 0.01250000, 0.03125000
2374, 0.36250000, 0.01250000, 0.03750000
2375, 0.36250000, 0.01250000, 0.04375000
2376, 0.36250000, 0.01250000, 0.05000000
2377, 0.36250000, 0.01875000, 0.00000000
2378, 0.36250000, 0.01875000, 0.00625000
2379, 0.36250000, 0.01875000, 0.01250000
2380, 0.36250000, 0.01875000, 0.01875000
2381, 0.36250000, 0.01875000, 0.02500000
2382, 0.36250000, 0.01875000, 0.03125000
2383, 0.36250000, 0.01875000, 0.03750000
2384, 0.36250000, 0.01875000, 0.04375000
2385, 0.36250000, 0.01875000, 0.05000000
2386, 0.36250000, 0.02500000, 0.00000000
2387, 0.36250000, 0.02500000, 0.00625000
2388, 0.36250000, 0.02500000, 0.01250000
2389, 0.36250000, 0.02500000, 0.01875000
2390, 0.36250000, 0.02500000, 0.02500000
2391, 0.36250000, 0.02500000, 0.03125000
2392, 0.36250000, 0.02500000, 0.03750000
2393, 0.36250000, 0.02500000, 0.04375000
2394, 0.36250000, 0.02500000, 0.05000000
2395, 0.36250000, 0.03125000, 0.00000000
2396, 0.36250000, 0.03125000, 0.00625000
2397, 0.36250000, 0.03125000, 0.01250000
2398, 0.36250000, 0.03125000, 0.01875000
2399, 0.36250000, 0.03125000, 0.02500000
2400, 0.36250000, 0.03125000, 0.03125000
2401, 0.36250000, 0.03125000, 0.03750000
2402, 0.36250000, 0.03125000, 0.04375000
2403, 0.36250000, 0.03125000, 0.05000000
2404, 0.36250000, 0.03750000, 0.00000000
2405, 0.36250000, 0.03750000, 0.00625000
2406, 0.36250000, 0.03750000, 0.01250000
2407, 0.36250000, 0.03750000, 0.01875000
2408, 0.36250000, 0.03750000, 0.02500000
2409, 0.36250000, 0.03750000, 0.03125000
2410, 0.36250000, 0.03750000, 0.03750000
2411, 0.36250000, 0.03750000, 0.04375000
2412, 0.36250000, 0.03750000, 0.05000000
2413, 0.36250000, 0.04375000, 0.00000000
2414, 0.36250000, 0.04375000, 0.00625000
2415, 0.36250000, 0.04375000, 0.01250000
2416, 0.36250000, 0.04375000, 0.01875000
2417, 0.36250000, 0.04375000, 0.02500000
2418, 0.36250000, 0.04375000, 0.03125000
2419, 0.36250000, 0.04375000, 0.03750000
2420, 0.36250000, 0.04375000, 0.04375000
2421, 0.36250000, 0.04375000, 0.05000000
2422, 0.36250000, 0.05000000, 0.00000000
2423, 0.36250000, 0.05000000, 0.00625000
2424, 0.36250000, 0.05000000, 0.01250000
2425, 0.36250000, 0.05000000, 0.01875000
2426, 0.36250000, 0.05000000, 0.02500000
2427, 0.36250000, 0.05000000, 0.03125000
2428, 0.36250000, 0.05000000, 0.03750000
2429, 0.36250000, 0.05000000, 0.04375000
2430, 0.36250000, 0.05000000, 0.05000000
2431, 0.37500000, 0.00000000, 0.00000000
2432, 0.37500000, 0.00000000, 0.00625000
2433, 0.37500000, 0.00000000, 0.01250000
2434, 0.37500000, 0.00000000, 0.01875000
2435, 0.37500000, 0.00000000, 0.02500000
2436, 0.37500000, 0.00000000, 0.03125000
2437, 0.37500000, 0.00000000, 0.03750000
2438, 0.37500000, 0.00000000, 0.04375000
2439, 0.37500000, 0.00000000, 0.05000000
2440, 0.37500000, 0.00625000, 0.00000000
2441, 0.37500000, 0.00625000, 0.00625000
2442, 0.37500000, 0.00625000, 0.01250000
2443, 0.37500000, 0.00625000, 0.01875000
2444, 0.37500000, 0.00625000, 0.02500000
2445, 0.37500000, 0.00625000, 0.03125000
2446, 0.37500000, 0.00625000, 0.03750000
2447, 0.37500000, 0.00625000, 0.04375000
2448, 0.37500000, 0.00625000, 0.05000000
2449, 0.37500000, 0.01250000, 0.00000000
2450, 0.37500000, 0.01250000, 0.00625000
2451, 0.37500000, 0.01250000, 0.01250000
2452, 0.37500000, 0.01250000, 0.01875000
2453, 0.37500000, 0.01250000, 0.02500000
2454, 0.37500000, 0.01250000, 0.03125000
2455, 0.37500000, 0.01250000, 0.03750000
2456, 0.37500000, 0.01250000, 0.04375000
2457, 0.37500000, 0.01250000, 0.05000000
2458, 0.37500000, 0.01875000, 0.00000000
2459, 0.37500000, 0.01875000, 0.00625000
2460, 0.37500000, 0.01875000, 0.01250000
2461, 0.37500000, 0.01875000, 0.01875000
2462, 0.37500000, 0.01875000, 0.02500000
2463, 0.37500000, 0.01875000, 0.03125000
2464, 0.37500000, 0.01875000, 0.03750000
2465, 0.37500000, 0.01875000, 0.04375000
2466, 0.37500000, 0.01875000, 0.05000000
2467, 0.37500000, 0.02500000, 0.00000000
2468, 0.37500000, 0.02500000, 0.00625000
2469, 0.37500000, 0.02500000, 0.01250000
2470, 0.37500000, 0.02500000, 0.01875000
2471, 0.37500000, 0.02500000, 0.02500000
2472, 0.37500000, 0.02500000, 0.03125000
2473, 0.37500000, 0.02500000, 0.03750000
2474, 0.37500000, 0.02500000, 0.04375000
2475, 0.37500000, 0.02500000, 0.05000000
2476, 0.37500000, 0.03125000, 0.00000000
2477, 0.37500000, 0.03125000, 0.00625000
2478, 0.37500000, 0.03125000, 0.01250000
2479, 0.37500000, 0.03125000, 0.01875000
2480, 0.37500000, 0.03125000, 0.02500000
2481, 0.37500000, 0.03125000, 0.03125000
2482, 0.37500000, 0.03125000, 0.03750000
2483, 0.37500000, 0.03125000, 0.04375000
2484, 0.37500000, 0.03125000, 0.05000000
2485, 0.37500000, 0.03750000, 0.00000000
2486, 0.37500000, 0.03750000, 0.00625000
2487, 0.37500000, 0.03750000, 0.01250000
2488, 0.37500000, 0.03750000, 0.01875000
2489, 0.37500000, 0.03750000, 0.02500000
2490, 0.37500000, 0.03750000, 0.03125000
2491, 0.37500000, 0.03750000, 0.03750000
2492, 0.37500000, 0.03750000, 0.04375000
2493, 0.37500000, 0.03750000, 0.05000000
2494, 0.37500000, 0.04375000, 0.00000000
2495, 0.37500000, 0.04375000, 0.00625000
2496, 0.37500000, 0.04375000, 0.01250000
2497, 0.37500000, 0.04375000, 0.01875000
2498, 0.37500000, 0.04375000, 0.02500000
2499, 0.37500000, 0.04375000, 0.03125000
2500, 0.37500000, 0.04375000, 0.03750000
2501, 0.37500000, 0.04375000, 0.04375000
2502, 0.37500000, 0.04375000, 0.05000000
2503, 0.37500000, 0.05000000, 0.00000000
2504, 0.37500000, 0.05000000, 0.00625000
2505, 0.37500000, 0.05000000, 0.01250000
2506, 0.37500000, 0.05000000, 0.01875000
2507, 0.37500000, 0.05000000, 0.02500000
2508, 0.37500000, 0.05000000, 0.03125000
2509, 0.37500000, 0.05000000, 0.03750000
2510, 0.37500000, 0.05000000, 0.04375000
2511, 0.37500000, 0.05000000, 0.05000000
2512, 0.38750000, 0.00000000, 0.00000000
2513, 0.38750000, 0.00000000, 0.00625000
2514, 0.38750000, 0.00000000, 0.01250000
2515, 0.38750000, 0.00000000, 0.01875000
2516, 0.38750000, 0.00000000, 0.02500000
2517, 0.38750000, 0.00000000, 0.03125000
2518, 0.38750000, 0.00000000, 0.03750000
2519, 0.38750000, 0.00000000, 0.04375000
2520, 0.38750000, 0.00000000, 0.05000000
2521, 0.38750000, 0.00625000, 0.00000000
2522, 0.38750000, 0.00625000, 0.00625000
2523, 0.38750000, 0.00625000, 0.01250000
2524, 0.38750000, 0.00625000, 0.01875000
2525, 0.38750000, 0.00625000, 0.02500000
2526, 0.38750000, 0.00625000, 0.03125000
2527, 0.38750000, 0.00625000, 0.03750000
2528, 0.38750000, 0.00625000, 0.04375000
2529, 0.38750000, 0.00625000, 0.05000000
2530, 0.38750000, 0.01250000, 0.00000000
2531, 0.38750000, 0.01250000, 0.00625000
2532, 0.38750000, 0.01250000, 0.01250000
2533, 0.38750000, 0.01250000, 0.01875000
2534, 0.38750000, 0.01250000, 0.02500000
2535, 0.38750000, 0.01250000, 0.03125000
2536, 0.38750000, 0.01250000, 0.03750000
2537, 0.38750000, 0.01250000, 0.04375000
2538, 0.38750000, 0.01250000, 0.05000000
2539, 0.38750000, 0.01875000, 0.00000000
2540, 0.38750000, 0.01875000, 0.00625000
2541, 0.38750000, 0.01875000, 0.01250000
2542, 0.38750000, 0.01875000, 0.01875000
2543, 0.38750000, 0.01875000, 0.02500000
2544, 0.38750000, 0.01875000, 0.03125000
2545, 0.38750000, 0.01875000, 0.03750000
2546, 0.38750000, 0.01875000, 0.04375000
2547, 0.38750000, 0.01875000, 0.05000000
2548, 0.38750000, 0.02500000, 0.00000000
2549, 0.38750000, 0.02500000, 0.00625000
2550, 0.38750000, 0.02500000, 0.01250000
2551, 0.38750000, 0.02500000, 0.01875000
2552, 0.38750000, 0.02500000, 0.02500000
2553, 0.38750000, 0.02500000, 0.03125000
2554, 0.38750000, 0.02500000, 0.03750000
2555, 0.38750000, 0.02500000, 0.04375000
2556, 0.38750000, 0.02500000, 0.05000000
2557, 0.38750000, 0.03125000, 0.00000000
2558, 0.38750000, 0.03125000, 0.00625000
2559, 0.38750000, 0.03125000, 0.01250000
2560, 0.38750000, 0.03125000, 0.01875000
2561, 0.38750000, 0.03125000, 0.02500000
2562, 0.38750000, 0.03125000, 0.03125000
2563, 0.38750000, 0.03125000, 0.03750000
2564, 0.38750000, 0.03125000, 0.04375000
2565, 0.38750000, 0.03125000, 0.05000000
2566, 0.38750000, 0.03750000, 0.00000000
2567, 0.38750000, 0.03750000, 0.00625000
2568, 0.38750000, 0.03750000, 0.01250000
2569, 0.38750000, 0.03750000, 0.01875000
2570, 0.38750000, 0.03750000, 0.02500000
2571, 0.38750000, 0.03750000, 0.03125000
2572, 0.38750000, 0.03750000, 0.03750000
2573, 0.38750000, 0.03750000, 0.04375000
2574, 0.38750000, 0.03750000, 0.05000000
2575, 0.38750000, 0.04375000, 0.00000000
2576, 0.38750000, 0.04375000, 0.00625000
2577, 0.38750000, 0.04375000, 0.01250000
2578, 0.38750000, 0.04375000, 0.01875000
2579, 0.38750000, 0.04375000, 0.02500000
2580, 0.38750000, 0.04375000, 0.03125000
2581, 0.38750000, 0.04375000, 0.03750000
2582, 0.38750000, 0.04375000, 0.04375000
2583, 0.38750000, 0.04375000, 0.05000000
2584, 0.38750000, 0.05000000, 0.00000000
2585, 0.38750000, 0.05000000, 0.00625000
2586, 0.38750000, 0.05000000, 0.01250000
2587, 0.38750000, 0.05000000, 0.01875000
2588, 0.38750000, 0.05000000, 0.02500000
2589, 0.38750000, 0.05000000, 0.03125000
2590, 0.38750000, 0.05000000, 0.03750000
2591, 0.38750000, 0.05000000, 0.04375000
2592, 0.38750000, 0.05000000, 0.05000000
2593, 0.40000000, 0.00000000, 0.00000000
2594, 0.40000000, 0.00000000, 0.00625000
2595, 0.40000000, 0.00000000, 0.01250000
2596, 0.40000000, 0.00000000, 0.01875000
2597, 0.40000000, 0.00000000, 0.02500000
2598, 0.40000000, 0.00000000, 0.03125000
2599, 0.40000000, 0.00000000, 0.03750000
2600, 0.40000000, 0.00000000, 0.04375000
2601, 0.40000000, 0.00000000, 0.05000000
2602, 0.40000000, 0.00625000, 0.00000000
2603, 0.40000000, 0.00625000, 0.00625000
2604, 0.40000000, 0.00625000, 0.01250000
2605, 0.40000000, 0.00625000, 0.01875000
2606, 0.40000000, 0.00625000, 0.02500000
2607, 0.40000000, 0.00625000, 0.03125000
2608, 0.40000000, 0.00625000, 0.03750000
2609, 0.40000000, 0.00625000, 0.04375000
2610, 0.40000000, 0.00625000, 0.05000000
2611, 0.40000000, 0.01250000, 0.00000000
2612, 0.40000000, 0.01250000, 0.00625000
2613, 0.40000000, 0.01250000, 0.01250000
2614, 0.40000000, 0.01250000, 0.01875000
2615, 0.40000000, 0.01250000, 0.02500000
2616, 0.40000000, 0.01250000, 0.03125000
2617, 0.40000000, 0.01250000, 0.03750000
2618, 0.40000000, 0.01250000, 0.04375000
2619, 0.40000000, 0.01250000, 0.05000000
2620, 0.40000000, 0.01875000, 0.00000000
2621, 0.40000000, 0.01875000, 0.00625000
2622, 0.40000000, 0.01875000, 0.01250000
2623, 0.40000000, 0.01875000, 0.01875000
2624, 0.40000000, 0.01875000, 0.02500000
2625, 0.40000000, 0.01875000, 0.03125000
2626, 0.40000000, 0.01875000, 0.03750000
2627, 0.40000000, 0.01875000, 0.04375000
2628, 0.40000000, 0.01875000, 0.05000000
2629, 0.40000000, 0.02500000, 0.00000000
2630, 0.40000000, 0.02500000, 0.00625000
2631, 0.40000000, 0.02500000, 0.01250000
2632, 0.40000000, 0.02500000, 0.01875000
2633, 0.40000000, 0.02500000, 0.02500000
2634, 0.40000000, 0.02500000, 0.03125000
2635, 0.40000000, 0.02500000, 0.03750000
2636, 0.40000000, 0.02500000, 0.04375000
2637, 0.40000000, 0.02500000, 0.05000000
2638, 0.40000000, 0.03125000, 0.00000000
2639, 0.40000000, 0.03125000, 0.00625000
2640, 0.40000000, 0.03125000, 0.01250000
2641, 0.40000000, 0.03125000, 0.01875000
2642, 0.40000000, 0.03125000, 0.02500000
2643, 0.40000000, 0.03125000, 0.03125000
2644, 0.40000000, 0.03125000, 0.03750000
2645, 0.40000000, 0.03125000, 0.04375000
2646, 0.40000000, 0.03125000, 0.05000000
2647, 0.40000000, 0.03750000, 0.00000000
2648, 0.40000000, 0.03750000, 0.00625000
2649, 0.40000000, 0.03750000, 0.01250000
2650, 0.40000000, 0.03750000, 0.01875000
2651, 0.40000000, 0.03750000, 0.02500000
2652, 0.40000000, 0.03750000, 0.03125000
2653, 0.40000000, 0.03750000, 0.03750000
2654, 0.40000000, 0.03750000, 0.04375000
2655, 0.40000000, 0.03750000, 0.05000000
2656, 0.40000000, 0.04375000, 0.00000000
2657, 0.40000000, 0.04375000, 0.00625000
2658, 0.40000000, 0.04375000, 0.01250000
2659, 0.40000000, 0.04375000, 0.01875000
2660, 0.40000000, 0.04375000, 0.02500000
2661, 0.40000000, 0.04375000, 0.03125000
2662, 0.40000000, 0.04375000, 0.03750000
2663, 0.40000000, 0.04375000, 0.04375000
2664, 0.40000000, 0.04375000, 0.05000000
2665, 0.40000000, 0.05000000, 0.00000000
2666, 0.40000000, 0.05000000, 0.00625000
2667, 0.40000000, 0.05000000, 0.01250000
2668, 0.40000000, 0.05000000, 0.01875000
2669, 0.40000000, 0.05000000, 0.02500000
2670, 0.40000000, 0.05000000, 0.03125000
2671, 0.40000000, 0.05000000, 0.03750000
2672, 0.40000000, 0.05000000, 0.04375000
2673, 0.40000000, 0.05000000, 0.05000000
2674, 0.41250000, 0.00000000, 0.00000000
2675, 0.41250000, 0.00000000, 0.00625000
2676, 0.41250000, 0.00000000, 0.01250000
2677, 0.41250000, 0.00000000, 0.01875000
2678, 0.41250000, 0.00000000, 0.02500000
2679, 0.41250000, 0.00000000, 0.03125000
2680, 0.41250000, 0.00000000, 0.03750000
2681, 0.41250000, 0.00000000, 0.04375000
2682, 0.41250000, 0.00000000, 0.05000000
2683, 0.41250000, 0.00625000, 0.00000000
2684, 0.41250000, 0.00625000, 0.00625000
2685, 0.41250000, 0.00625000, 0.01250000
2686, 0.41250000, 0.00625000, 0.01875000
2687, 0.41250000, 0.00625000, 0.02500000
2688, 0.41250000, 0.00625000, 0.03125000
2689, 0.41250000, 0.00625000, 0.03750000
2690, 0.41250000, 0.00625000, 0.04375000
2691, 0.41250000, 0.00625000, 0.05000000
2692, 0.41250000, 0.01250000, 0.00000000
2693, 0.41250000, 0.01250000, 0.00625000
2694, 0.41250000, 0.01250000, 0.01250000
2695, 0.41250000, 0.01250000, 0.01875000
2696, 0.41250000, 0.01250000, 0.02500000
2697, 0.41250000, 0.01250000, 0.03125000
2698, 0.41250000, 0.01250000, 0.03750000
2699, 0.41250000, 0.01250000, 0.04375000
2700, 0.41250000, 0.01250000, 0.05000000
2701, 0.41250000, 0.01875000, 0.00000000
2702, 0.41250000, 0.01875000, 0.00625000
2703, 0.41250000, 0.01875000, 0.01250000
2704, 0.41250000, 0.01875000, 0.01875000
2705, 0.41250000, 0.01875000, 0.02500000
2706, 0.41250000, 0.01875000, 0.03125000
2707, 0.41250000, 0.01875000, 0.03750000
2708, 0.41250000, 0.01875000, 0.04375000
2709, 0.41250000, 0.01875000, 0.05000000
2710, 0.41250000, 0.02500000, 0.00000000
2711, 0.41250000, 0.02500000, 0.00625000
2712, 0.41250000, 0.02500000, 0.01250000
2713, 0.41250000, 0.02500000, 0.01875000
2714, 0.41250000, 0.02500000, 0.02500000
2715, 0.41250000, 0.02500000, 0.03125000
2716, 0.41250000, 0.02500000, 0.03750000
2717, 0.41250000, 0.02500000, 0.04375000
2718, 0.41250000, 0.02500000, 0.05000000
2719, 0.41250000, 0.03125000, 0.00000000
2720, 0.41250000, 0.03125000, 0.00625000
2721, 0.41250000, 0.03125000, 0.01250000
2722, 0.41250000, 0.03125000, 0.01875000
2723, 0.41250000, 0.03125000, 0.02500000
2724, 0.41250000, 0.03125000, 0.03125000
2725, 0.41250000, 0.03125000, 0.03750000
2726, 0.41250000, 0.03125000, 0.04375000
2727, 0.41250000, 0.03125000, 0.05000000
2728, 0.41250000, 0.03750000, 0.00000000
2729, 0.41250000, 0.03750000, 0.00625000
2730, 0.41250000, 0.03750000, 0.01250000
2731, 0.41250000, 0.03750000, 0.01875000
2732, 0.41250000, 0.03750000, 0.02500000
2733, 0.41250000, 0.03750000, 0.03125000
2734, 0.41250000, 0.03750000, 0.03750000
2735, 0.41250000, 0.03750000, 0.04375000
2736, 0.41250000, 0.03750000, 0.05000000
2737, 0.41250000, 0.04375000, 0.00000000
2738, 0.41250000, 0.04375000, 0.00625000
2739, 0.41250000, 0.04375000, 0.01250000
2740, 0.41250000, 0.04375000, 0.01875000
2741, 0.41250000, 0.04375000, 0.02500000
2742, 0.41250000, 0.04375000, 0.03125000
2743, 0.41250000, 0.04375000, 0.03750000
2744, 0.41250000, 0.04375000, 0.04375000
2745, 0.41250000, 0.04375000, 0.05000000
2746, 0.41250000, 0.05000000, 0.00000000
2747, 0.41250000, 0.05000000, 0.00625000
2748, 0.41250000, 0.05000000, 0.01250000
2749, 0.41250000, 0.05000000, 0.01875000
2750, 0.41250000, 0.05000000, 0.02500000
2751, 0.41250000, 0.05000000, 0.03125000
2752, 0.41250000, 0.05000000, 0.03750000
2753, 0.41250000, 0.05000000, 0.04375000
2754, 0.41250000, 0.05000000, 0.05000000
2755, 0.42500000, 0.00000000, 0.00000000
2756, 0.42500000, 0.00000000, 0.00625000
2757, 0.42500000, 0.00000000, 0.01250000
2758, 0.42500000, 0.00000000, 0.01875000
2759, 0.42500000, 0.00000000, 0.02500000
2760, 0.42500000, 0.00000000, 0.03125000
2761, 0.42500000, 0.00000000, 0.03750000
2762, 0.42500000, 0.00000000, 0.04375000
2763, 0.42500000, 0.00000000, 0.05000000
2764, 0.42500000, 0.00625000, 0.00000000
2765, 0.42500000, 0.00625000, 0.00625000
2766, 0.42500000, 0.00625000, 0.01250000
2767, 0.42500000, 0.00625000, 0.01875000
2768, 0.42500000, 0.00625000, 0.02500000
2769, 0.42500000, 0.00625000, 0.03125000
2770, 0.42500000, 0.00625000, 0.03750000
2771, 0.42500000, 0.00625000, 0.04375000
2772, 0.42500000, 0.00625000, 0.05000000
2773, 0.42500000, 0.01250000, 0.00000000
2774, 0.42500000, 0.01250000, 0.00625000
2775, 0.42500000, 0.01250000, 0.01250000
2776, 0.42500000, 0.01250000, 0.01875000
2777, 0.42500000, 0.01250000, 0.02500000
2778, 0.42500000, 0.01250000, 0.03125000
2779, 0.42500000, 0.01250000, 0.03750000
2780, 0.42500000, 0.01250000, 0.04375000
2781, 0.42500000, 0.01250000, 0.05000000
2782, 0.42500000, 0.01875000, 0.00000000
2783, 0.42500000, 0.01875000, 0.00625000
2784, 0.42500000, 0.01875000, 0.01250000
2785, 0.42500000, 0.01875000, 0.01875000
2786, 0.42500000, 0.01875000, 0.02500000
2787, 0.42500000, 0.01875000, 0.03125000
2788, 0.42500000, 0.01875000, 0.03750000
2789, 0.42500000, 0.01875000, 0.04375000
2790, 0.42500000, 0.01875000, 0.05000000
2791, 0.42500000, 0.02500000, 0.00000000
2792, 0.42500000, 0.02500000, 0.00625000
2793, 0.42500000, 0.02500000, 0.01250000
2794, 0.42500000, 0.02500000, 0.01875000
2795, 0.42500000, 0.02500000, 0.02500000
2796, 0.42500000, 0.02500000, 0.03125000
2797, 0.42500000, 0.02500000, 0.03750000
2798, 0.42500000, 0.02500000, 0.04375000
2799, 0.42500000, 0.02500000, 0.05000000
2800, 0.42500000, 0.03125000, 0.00000000
2801, 0.42500000, 0.03125000, 0.00625000
2802, 0.42500000, 0.03125000, 0.01250000
2803, 0.42500000, 0.03125000, 0.01875000
2804, 0.42500000, 0.03125000, 0.02500000
2805, 0.42500000, 0.03125000, 0.03125000
2806, 0.42500000, 0.03125000, 0.03750000
2807, 0.42500000, 0.03125000, 0.04375000
2808, 0.42500000, 0.03125000, 0.05000000
2809, 0.42500000, 0.03750000, 0.00000000
2810, 0.42500000, 0.03750000, 0.00625000
2811, 0.42500000, 0.03750000, 0.01250000
2812, 0.42500000, 0.03750000, 0.01875000
2813, 0.42500000, 0.03750000, 0.02500000
2814, 0.42500000, 0.03750000, 0.03125000
2815, 0.42500000, 0.03750000, 0.03750000
2816, 0.42500000, 0.03750000, 0.04375000
2817, 0.42500000, 0.03750000, 0.05000000
2818, 0.42500000, 0.04375000, 0.00000000
2819, 0.42500000, 0.04375000, 0.00625000
2820, 0.42500000, 0.04375000, 0.01250000
2821, 0.42500000, 0.04375000, 0.01875000
2822, 0.42500000, 0.04375000, 0.02500000
2823, 0.42500000, 0.04375000, 0.03125000
2824, 0.42500000, 0.04375000, 0.03750000
2825, 0.42500000, 0.04375000, 0.04375000
2826, 0.42500000, 0.04375000, 0.05000000
2827, 0.42500000, 0.05000000, 0.00000000
2828, 0.42500000, 0.05000000, 0.00625000
2829, 0.42500000, 0.05000000, 0.01250000
2830, 0.42500000, 0.05000000, 0.01875000
2831, 0.42500000, 0.05000000, 0.02500000
2832, 0.42500000, 0.05000000, 0.03125000
2833, 0.42500000, 0.05000000, 0.03750000
2834, 0.42500000, 0.05000000, 0.04375000
2835, 0.42500000, 0.05000000, 0.05000000
2836, 0.43750000, 0.00000000, 0.00000000
2837, 0.43750000, 0.00000000, 0.00625000
2838, 0.43750000, 0.00000000, 0.01250000
2839, 0.43750000, 0.00000000, 0.01875000
2840, 0.43750000, 0.00000000, 0.02500000
2841, 0.43750000, 0.00000000, 0.03125000
2842, 0.43750000, 0.00000000, 0.03750000
2843, 0.43750000, 0.00000000, 0.04375000
2844, 0.43750000, 0.00000000, 0.05000000
2845, 0.43750000, 0.00625000, 0.00000000
2846, 0.43750000, 0.00625000, 0.00625000
2847, 0.43750000, 0.00625000, 0.01250000
2848, 0.43750000, 0.00625000, 0.01875000
2849, 0.43750000, 0.00625000, 0.02500000
2850, 0.43750000, 0.00625000, 0.03125000
2851, 0.43750000, 0.00625000, 0.03750000
2852, 0.43750000, 0.00625000, 0.04375000
2853, 0.43750000, 0.00625000, 0.05000000
2854, 0.43750000, 0.01250000, 0.00000000
2855, 0.43750000, 0.01250000, 0.00625000
2856, 0.43750000, 0.01250000, 0.01250000
2857, 0.43750000, 0.01250000, 0.01875000
2858, 0.43750000, 0.01250000, 0.02500000
2859, 0.43750000, 0.01250000, 0.03125000
2860, 0.43750000, 0.01250000, 0.03750000
2861, 0.43750000, 0.01250000, 0.04375000
2862, 0.43750000, 0.01250000, 0.05000000
2863, 0.43750000, 0.01875000, 0.00000000
2864, 0.43750000, 0.01875000, 0.00625000
2865, 0.43750000, 0.01875000, 0.01250000
2866, 0.43750000, 0.01875000, 0.01875000
2867, 0.43750000, 0.01875000, 0.02500000
2868, 0.43750000, 0.01875000, 0.03125000
2869, 0.43750000, 0.01875000, 0.03750000
2870, 0.43750000, 0.01875000, 0.04375000
2871, 0.43750000, 0.01875000, 0.05000000
2872, 0.43750000, 0.02500000, 0.00000000
2873, 0.43750000, 0.02500000, 0.00625000
2874, 0.43750000, 0.02500000, 0.01250000
2875, 0.43750000, 0.02500000, 0.01875000
2876, 0.43750000, 0.02500000, 0.02500000
2877, 0.43750000, 0.02500000, 0.03125000
2878, 0.43750000, 0.02500000, 0.03750000
2879, 0.43750000, 0.02500000, 0.04375000
2880, 0.43750000, 0.02500000, 0.05000000
2881, 0.43750000, 0.03125000, 0.00000000
2882, 0.43750000, 0.03125000, 0.00625000
2883, 0.43750000, 0.03125000, 0.01250000
2884, 0.43750000, 0.03125000, 0.01875000
2885, 0.43750000, 0.03125000, 0.02500000
2886, 0.43750000, 0.03125000, 0.03125000
2887, 0.43750000, 0.03125000, 0.03750000
2888, 0.43750000, 0.03125000, 0.04375000
2889, 0.43750000, 0.03125000, 0.05000000
2890, 0.43750000, 0.03750000, 0.00000000
2891, 0.43750000, 0.03750000, 0.00625000
2892, 0.43750000, 0.03750000, 0.01250000
2893, 0.43750000, 0.03750000, 0.01875000
2894, 0.43750000, 0.03750000, 0.02500000
2895, 0.43750000, 0.03750000, 0.03125000
2896, 0.43750000, 0.03750000, 0.03750000
2897, 0.43750000, 0.03750000, 0.04375000
2898, 0.43750000, 0.03750000, 0.05000000
2899, 0.43750000, 0.04375000, 0.00000000
2900, 0.43750000, 0.04375000, 0.00625000
2901, 0.43750000, 0.04375000, 0.01250000
2902, 0.43750000, 0.04375000, 0.01875000
2903, 0.43750000, 0.04375000, 0.02500000
2904, 0.43750000, 0.04375000, 0.03125000
2905, 0.43750000, 0.04375000, 0.03750000
2906, 0.43750000, 0.04375000, 0.04375000
2907, 0.43750000, 0.04375000, 0.05000000
2908, 0.43750000, 0.05000000, 0.00000000
2909, 0.43750000, 0.05000000, 0.00625000
2910, 0.43750000, 0.05000000, 0.01250000
2911, 0.43750000, 0.05000000, 0.01875000
2912, 0.43750000, 0.05000000, 0.02500000
2913, 0.43750000, 0.05000000, 0.03125000
2914, 0.43750000, 0.05000000, 0.03750000
2915, 0.43750000, 0.05000000, 0.04375000
2916, 0.43750000, 0.05000000, 0.05000000
2917, 0.45000000, 0.00000000, 0.00000000
2918, 0.45000000, 0.00000000, 0.00625000
2919, 0.45000000, 0.00000000, 0.01250000
2920, 0.45000000, 0.00000000, 0.01875000
2921, 0.45000000, 0.00000000, 0.02500000
2922, 0.45000000, 0.00000000, 0.03125000
2923, 0.45000000, 0.00000000, 0.03750000
2924, 0.45000000, 0.00000000, 0.04375000
2925, 0.45000000, 0.00000000, 0.05000000
2926, 0.45000000, 0.00625000, 0.00000000
2927, 0.45000000, 0.00625000, 0.00625000
2928, 0.45000000, 0.00625000, 0.01250000
2929, 0.45000000, 0.00625000, 0.01875000
2930, 0.45000000, 0.00625000, 0.02500000
2931, 0.45000000, 0.00625000, 0.03125000
2932, 0.45000000, 0.00625000, 0.03750000
2933, 0.45000000, 0.00625000, 0.04375000
2934, 0.45000000, 0.00625000, 0.05000000
2935, 0.45000000, 0.01250000, 0.00000000
2936, 0.45000000, 0.01250000, 0.00625000
2937, 0.45000000, 0.01250000, 0.01250000
2938, 0.45000000, 0.01250000, 0.01875000
2939, 0.45000000, 0.01250000, 0.02500000
2940, 0.45000000, 0.01250000, 0.03125000
2941, 0.45000000, 0.01250000, 0.03750000
2942, 0.45000000, 0.01250000, 0.04375000
2943, 0.45000000, 0.01250000, 0.05000000
2944, 0.45000000, 0.01875000, 0.00000000
2945, 0.45000000, 0.01875000, 0.00625000
2946, 0.45000000, 0.01875000, 0.01250000
2947, 0.45000000, 0.01875000, 0.01875000
2948, 0.45000000, 0.01875000, 0.02500000
2949, 0.45000000, 0.01875000, 0.03125000
2950, 0.45000000, 0.01875000, 0.03750000
2951, 0.45000000, 0.01875000, 0.04375000
2952, 0.45000000, 0.01875000, 0.05000000
2953, 0.45000000, 0.02500000, 0.00000000
2954, 0.45000000, 0.02500000, 0.00625000
2955, 0.45000000, 0.02500000, 0.01250000
2956, 0.45000000, 0.02500000, 0.01875000
2957, 0.45000000, 0.02500000, 0.02500000
2958, 0.45000000, 0.02500000, 0.03125000
2959, 0.45000000, 0.02500000, 0.03750000
2960, 0.45000000, 0.02500000, 0.04375000
2961, 0.45000000, 0.02500000, 0.05000000
2962, 0.45000000, 0.03125000, 0.00000000
2963, 0.45000000, 0.03125000, 0.00625000
2964, 0.45000000, 0.03125000, 0.01250000
2965, 0.45000000, 0.03125000, 0.01875000
2966, 0.45000000, 0.03125000, 0.02500000
2967, 0.45000000, 0.03125000, 0.03125000
2968, 0.45000000, 0.03125000, 0.03750000
2969, 0.45000000, 0.03125000, 0.04375000
2970, 0.45000000, 0.03125000, 0.05000000
2971, 0.45000000, 0.03750000, 0.00000000
2972, 0.45000000, 0.03750000, 0.00625000
2973, 0.45000000, 0.03750000, 0.01250000
2974, 0.45000000, 0.03750000, 0.01875000
2975, 0.45000000, 0.03750000, 0.02500000
2976, 0.45000000, 0.03750000, 0.03125000
2977, 0.45000000, 0.03750000, 0.03750000
2978, 0.45000000, 0.03750000, 0.04375000
2979, 0.45000000, 0.03750000, 0.05000000
2980, 0.45000000, 0.04375000, 0.00000000
2981, 0.45000000, 0.04375000, 0.00625000
2982, 0.45000000, 0.04375000, 0.01250000
2983, 0.45000000, 0.04375000, 0.01875000
2984, 0.45000000, 0.04375000, 0.02500000
2985, 0.45000000, 0.04375000, 0.03125000
2986, 0.45000000, 0.04375000, 0.03750000
2987, 0.45000000, 0.04375000, 0.04375000
2988, 0.45000000, 0.04375000, 0.05000000
2989, 0.45000000, 0.05000000, 0.00000000
2990, 0.45000000, 0.05000000, 0.00625000
2991, 0.45000000, 0.05000000, 0.01250000
2992, 0.45000000, 0.05000000, 0.01875000
2993, 0.45000000, 0.05000000, 0.02500000
2994, 0.45000000, 0.05000000, 0.03125000
2995, 0.45000000, 0.05000000, 0.03750000
2996, 0.45000000, 0.05000000, 0.04375000
2997, 0.45000000, 0.05000000, 0.05000000
2998, 0.46250000, 0.00000000, 0.00000000
2999, 0.46250000, 0.00000000, 0.00625000
3000, 0.46250000, 0.00000000, 0.01250000
3001, 0.46250000, 0.00000000, 0.01875000
3002, 0.46250000, 0.00000000, 0.02500000
3003, 0.46250000, 0.00000000, 0.03125000
3004, 0.46250000, 0.00000000, 0.03750000
3005, 0.46250000, 0.00000000, 0.04375000
3006, 0.46250000, 0.00000000, 0.05000000
3007, 0.46250000, 0.00625000, 0.00000000
3008, 0.46250000, 0.00625000, 0.00625000
3009, 0.46250000, 0.00625000, 0.01250000
3010, 0.46250000, 0.00625000, 0.01875000
3011, 0.46250000, 0.00625000, 0.02500000
3012, 0.46250000, 0.00625000, 0.03125000
3013, 0.46250000, 0.00625000, 0.03750000
3014, 0.46250000, 0.00625000, 0.04375000
3015, 0.46250000, 0.00625000, 0.05000000
3016, 0.46250000, 0.01250000, 0.00000000
3017, 0.46250000, 0.01250000, 0.00625000
3018, 0.46250000, 0.01250000, 0.01250000
3019, 0.46250000, 0.01250000, 0.01875000
3020, 0.46250000, 0.01250000, 0.02500000
3021, 0.46250000, 0.01250000, 0.03125000
3022, 0.46250000, 0.01250000, 0.03750000
3023, 0.46250000, 0.01250000, 0.04375000
3024, 0.46250000, 0.01250000, 0.05000000
3025, 0.46250000, 0.01875000, 0.00000000
3026, 0.46250000, 0.01875000, 0.00625000
3027, 0.46250000, 0.01875000, 0.01250000
3028, 0.46250000, 0.01875000, 0.01875000
3029, 0.46250000, 0.01875000, 0.02500000
3030, 0.46250000, 0.01875000, 0.03125000
3031, 0.46250000, 0.01875000, 0.03750000
3032, 0.46250000, 0.01875000, 0.04375000
3033, 0.46250000, 0.01875000, 0.05000000
3034, 0.46250000, 0.02500000, 0.00000000
3035, 0.46250000, 0.02500000, 0.00625000
3036, 0.46250000, 0.02500000, 0.01250000
3037, 0.46250000, 0.02500000, 0.01875000
3038, 0.46250000, 0.02500000, 0.02500000
3039, 0.46250000, 0.02500000, 0.03125000
3040, 0.46250000, 0.02500000, 0.03750000
3041, 0.46250000, 0.02500000, 0.04375000
3042, 0.46250000, 0.02500000, 0.05000000
3043, 0.46250000, 0.03125000, 0.00000000
3044, 0.46250000, 0.03125000, 0.00625000
3045, 0.46250000, 0.03125000, 0.01250000
3046, 0.46250000, 0.03125000, 0.01875000
3047, 0.46250000, 0.03125000, 0.02500000
3048, 0.46250000, 0.03125000, 0.03125000
3049, 0.46250000, 0.03125000, 0.03750000
3050, 0.46250000, 0.03125000, 0.04375000
3051, 0.46250000, 0.03125000, 0.05000000
3052, 0.46250000, 0.03750000, 0.00000000
3053, 0.46250000, 0.03750000, 0.00625000
3054, 0.46250000, 0.03750000, 0.01250000
3055, 0.46250000, 0.03750000, 0.01875000
3056, 0.46250000, 0.03750000, 0.02500000
3057, 0.46250000, 0.03750000, 0.03125000
3058, 0.46250000, 0.03750000, 0.03750000
3059, 0.46250000, 0.03750000, 0.04375000
3060, 0.46250000, 0.03750000, 0.05000000
3061, 0.46250000, 0.04375000, 0.00000000
3062, 0.46250000, 0.04375000, 0.00625000
3063, 0.46250000, 0.04375000, 0.01250000
3064, 0.46250000, 0.04375000, 0.01875000
3065, 0.46250000, 0.04375000, 0.02500000
3066, 0.46250000, 0.04375000, 0.03125000
3067, 0.46250000, 0.04375000, 0.03750000
3068, 0.46250000, 0.04375000, 0.04375000
3069, 0.46250000, 0.04375000, 0.05000000
3070, 0.46250000, 0.05000000, 0.00000000
3071, 0.46250000, 0.05000000, 0.00625000
3072, 0.46250000, 0.05000000, 0.01250000
3073, 0.46250000, 0.05000000, 0.01875000
3074, 0.46250000, 0.05000000, 0.02500000
3075, 0.46250000, 0.05000000, 0.03125000
3076, 0.46250000, 0.05000000, 0.03750000
3077, 0.46250000, 0.05000000, 0.04375000
3078, 0.46250000, 0.05000000, 0.05000000
3079, 0.47500000, 0.00000000, 0.00000000
3080, 0.47500000, 0.00000000, 0.00625000
3081, 0.47500000, 0.00000000, 0.01250000
3082, 0.47500000, 0.00000000, 0.01875000
3083, 0.47500000, 0.00000000, 0.02500000
3084, 0.47500000, 0.00000000, 0.03125000
3085, 0.47500000, 0.00000000, 0.03750000
3086, 0.47500000, 0.00000000, 0.04375000
3087, 0.47500000, 0.00000000, 0.05000000
3088, 0.47500000, 0.00625000, 0.00000000
3089, 0.47500000, 0.00625000, 0.00625000
3090, 0.47500000, 0.00625000, 0.01250000
3091, 0.47500000, 0.00625000, 0.01875000
3092, 0.47500000, 0.00625000, 0.02500000
3093, 0.47500000, 0.00625000, 0.03125000
3094, 0.47500000, 0.00625000, 0.03750000
3095, 0.47500000, 0.00625000, 0.04375000
3096, 0.47500000, 0.00625000, 0.05000000
3097, 0.47500000, 0.01250000, 0.00000000
3098, 0.47500000, 0.01250000, 0.00625000
3099, 0.47500000, 0.01250000, 0.01250000
3100, 0.47500000, 0.01250000, 0.01875000
3101, 0.47500000, 0.01250000, 0.02500000
3102, 0.47500000, 0.01250000, 0.03125000
3103, 0.47500000, 0.01250000, 0.03750000
3104, 0.47500000, 0.01250000, 0.04375000
3105, 0.47500000, 0.01250000, 0.05000000
3106, 0.47500000, 0.01875000, 0.00000000
3107, 0.47500000, 0.01875000, 0.00625000
3108, 0.47500000, 0.01875000, 0.01250000
3109, 0.47500000, 0.01875000, 0.01875000
3110, 0.47500000, 0.01875000, 0.02500000
3111, 0.47500000, 0.01875000, 0.03125000
3112, 0.47500000, 0.01875000, 0.03750000
3113, 0.47500000, 0.01875000, 0.04375000
3114, 0.47500000, 0.01875000, 0.05000000
3115, 0.47500000, 0.02500000, 0.00000000
3116, 0.47500000, 0.02500000, 0.00625000
3117, 0.47500000, 0.02500000, 0.01250000
3118, 0.47500000, 0.02500000, 0.01875000
3119, 0.47500000, 0.02500000, 0.02500000
3120, 0.47500000, 0.02500000, 0.03125000
3121, 0.47500000, 0.02500000, 0.03750000
3122, 0.47500000, 0.02500000, 0.04375000
3123, 0.47500000, 0.02500000, 0.05000000
3124, 0.47500000, 0.03125000, 0.00000000
3125, 0.47500000, 0.03125000, 0.00625000
3126, 0.47500000, 0.03125000, 0.01250000
3127, 0.47500000, 0.03125000, 0.01875000
3128, 0.47500000, 0.03125000, 0.02500000
3129, 0.47500000, 0.03125000, 0.03125000
3130, 0.47500000, 0.03125000, 0.03750000
3131, 0.47500000, 0.03125000, 0.04375000
3132, 0.47500000, 0.03125000, 0.05000000
3133, 0.47500000, 0.03750000, 0.00000000
3134, 0.47500000, 0.03750000, 0.00625000
3135, 0.47500000, 0.03750000, 0.01250000
3136, 0.47500000, 0.03750000, 0.01875000
3137, 0.47500000, 0.03750000, 0.02500000
3138, 0.47500000, 0.03750000, 0.03125000
3139, 0.47500000, 0.03750000, 0.03750000
3140, 0.47500000, 0.03750000, 0.04375000
3141, 0.47500000, 0.03750000, 0.05000000
3142, 0.47500000, 0.04375000, 0.00000000
3143, 0.47500000, 0.04375000, 0.00625000
3144, 0.47500000, 0.04375000, 0.01250000
3145, 0.47500000, 0.04375000, 0.01875000
3146, 0.47500000, 0.04375000, 0.02500000
3147, 0.47500000, 0.04375000, 0.03125000
3148, 0.47500000, 0.04375000, 0.03750000
3149, 0.47500000, 0.04375000, 0.04375000
3150, 0.47500000, 0.04375000, 0.05000000
3151, 0.47500000, 0.05000000, 0.00000000
3152, 0.47500000, 0.05000000, 0.00625000
3153, 0.47500000, 0.05000000, 0.01250000
3154, 0.47500000, 0.05000000, 0.01875000
3155, 0.47500000, 0.05000000, 0.02500000
3156, 0.47500000, 0.05000000, 0.03125000
3157, 0.47500000, 0.05000000, 0.03750000
3158, 0.47500000, 0.05000000, 0.04375000
3159, 0.47500000, 0.05000000, 0.05000000
3160, 0.48750000, 0.00000000, 0.00000000
3161, 0.48750000, 0.00000000, 0.00625000
3162, 0.48750000, 0.00000000, 0.01250000
3163, 0.48750000, 0.00000000, 0.01875000
3164, 0.48750000, 0.00000000, 0.02500000
3165, 0.48750000, 0.00000000, 0.03125000
3166, 0.48750000, 0.00000000, 0.03750000
3167, 0.48750000, 0.00000000, 0.04375000
3168, 0.48750000, 0.00000000, 0.05000000
3169, 0.48750000, 0.00625000, 0.00000000
3170, 0.48750000, 0.00625000, 0.00625000
3171, 0.48750000, 0.00625000, 0.01250000
3172, 0.48750000, 0.00625000, 0.01875000
3173, 0.48750000, 0.00625000, 0.02500000
3174, 0.48750000, 0.00625000, 0.03125000
3175, 0.48750000, 0.00625000, 0.03750000
3176, 0.48750000, 0.00625000, 0.04375000
3177, 0.48750000, 0.00625000, 0.05000000
3178, 0.48750000, 0.01250000, 0.00000000
3179, 0.48750000, 0.01250000, 0.00625000
3180, 0.48750000, 0.01250000, 0.01250000
3181, 0.48750000, 0.01250000, 0.01875000
3182, 0.48750000, 0.01250000, 0.02500000
3183, 0.48750000, 0.01250000, 0.03125000
3184, 0.48750000, 0.01250000, 0.03750000
3185, 0.48750000, 0.01250000, 0.04375000
3186, 0.48750000, 0.01250000, 0.05000000
3187, 0.48750000, 0.01875000, 0.00000000
3188, 0.48750000, 0.01875000, 0.00625000
3189, 0.48750000, 0.01875000, 0.01250000
3190, 0.48750000, 0.01875000, 0.01875000
3191, 0.48750000, 0.01875000, 0.02500000
3192, 0.48750000, 0.01875000, 0.03125000
3193, 0.48750000, 0.01875000, 0.03750000
3194, 0.48750000, 0.01875000, 0.04375000
3195, 0.48750000, 0.01875000, 0.05000000
3196, 0.48750000, 0.02500000, 0.00000000
3197, 0.48750000, 0.02500000, 0.00625000
3198, 0.48750000, 0.02500000, 0.01250000
3199, 0.48750000, 0.02500000, 0.01875000
3200, 0.48750000, 0.02500000, 0.02500000
3201, 0.48750000, 0.02500000, 0.03125000
3202, 0.48750000, 0.02500000, 0.03750000
3203, 0.48750000, 0.02500000, 0.04375000
3204, 0.48750000, 0.02500000, 0.05000000
3205, 0.48750000, 0.03125000, 0.00000000
3206, 0.48750000, 0.03125000, 0.00625000
3207, 0.48750000, 0.03125000, 0.01250000
3208, 0.48750000, 0.03125000, 0.01875000
3209, 0.48750000, 0.03125000, 0.02500000
3210, 0.48750000, 0.03125000, 0.03125000
3211, 0.48750000, 0.03125000, 0.03750000
3212, 0.48750000, 0.03125000, 0.04375000
3213, 0.48750000, 0.03125000, 0.05000000
3214, 0.48750000, 0.03750000, 0.00000000
3215, 0.48750000, 0.03750000, 0.00625000
3216, 0.48750000, 0.03750000, 0.01250000
3217, 0.48750000, 0.03750000, 0.01875000
3218, 0.48750000, 0.03750000, 0.02500000
3219, 0.48750000, 0.03750000, 0.03125000
3220, 0.48750000, 0.03750000, 0.03750000
3221, 0.48750000, 0.03750000, 0.04375000
3222, 0.48750000, 0.03750000, 0.05000000
3223, 0.48750000, 0.04375000, 0.00000000
3224, 0.48750000, 0.04375000, 0.00625000
3225, 0.48750000, 0.04375000, 0.01250000
3226, 0.48750000, 0.04375000, 0.01875000
3227, 0.48750000, 0.04375000, 0.02500000
3228, 0.48750000, 0.04375000, 0.03125000
3229, 0.48750000, 0.04375000, 0.03750000
3230, 0.48750000, 0.04375000, 0.04375000
3231, 0.48750000, 0.04375000, 0.05000000
3232, 0.48750000, 0.05000000, 0.00000000
3233, 0.48750000, 0.05000000, 0.00625000
3234, 0.48750000, 0.05000000, 0.01250000
3235, 0.48750000, 0.05000000, 0.01875000
3236, 0.48750000, 0.05000000, 0.02500000
3237, 0.48750000, 0.05000000, 0.03125000
3238, 0.48750000, 0.05000000, 0.03750000
3239, 0.48750000, 0.05000000, 0.04375000
3240, 0.48750000, 0.05000000, 0.05000000
3241, 0.50000000, 0.00000000, 0.00000000
3242, 0.50000000, 0.00000000, 0.00625000
3243, 0.50000000, 0.00000000, 0.01250000
3244, 0.50000000, 0.00000000, 0.01875000
3245, 0.50000000, 0.00000000, 0.02500000
3246, 0.50000000, 0.00000000, 0.03125000
3247, 0.50000000, 0.00000000, 0.03750000
3248, 0.50000000, 0.00000000, 0.04375000
3249, 0.50000000, 0.00000000, 0.05000000
3250, 0.50000000, 0.00625000, 0.00000000
3251, 0.50000000, 0.00625000, 0.00625000
3252, 0.50000000, 0.00625000, 0.01250000
3253, 0.50000000, 0.00625000, 0.01875000
3254, 0.50000000, 0.00625000, 0.02500000
3255, 0.50000000, 0.00625000, 0.03125000
3256, 0.50000000, 0.00625000, 0.03750000
3257, 0.50000000, 0.00625000, 0.04375000
3258, 0.50000000, 0.00625000, 0.05000000
3259, 0.50000000, 0.01250000, 0.00000000
3260, 0.50000000, 0.01250000, 0.00625000
3261, 0.50000000, 0.01250000, 0.01250000
3262, 0.50000000, 0.01250000, 0.01875000
3263, 0.50000000, 0.01250000, 0.02500000
3264, 0.50000000, 0.01250000, 0.03125000
3265, 0.50000000, 0.01250000, 0.03750000
3266, 0.50000000, 0.01250000, 0.04375000
3267, 0.50000000, 0.01250000, 0.05000000
3268, 0.50000000, 0.01875000, 0.00000000
3269, 0.50000000, 0.01875000, 0.00625000
3270, 0.50000000, 0.01875000, 0.01250000
3271, 0.50000000, 0.01875000, 0.01875000
3272, 0.50000000, 0.01875000, 0.02500000
3273, 0.50000000, 0.01875000, 0.03125000
3274, 0.50000000, 0.01875000, 0.03750000
3275, 0.50000000, 0.01875000, 0.04375000
3276, 0.50000000, 0.01875000, 0.05000000
3277, 0.50000000, 0.02500000, 0.00000000
3278, 0.50000000, 0.02500000, 0.00625000
3279, 0.50000000, 0.02500000, 0.01250000
3280, 0.50000000, 0.02500000, 0.01875000
3281, 0.50000000, 0.02500000, 0.02500000
3282, 0.50000000, 0.02500000, 0.03125000
3283, 0.50000000, 0.02500000, 0.03750000
3284, 0.50000000, 0.02500000, 0.04375000
3285, 0.50000000, 0.02500000, 0.05000000
3286, 0.50000000, 0.03125000, 0.00000000
3287, 0.50000000, 0.03125000, 0.00625000
3288, 0.50000000, 0.03125000, 0.01250000
3289, 0.50000000, 0.03125000, 0.01875000
3290, 0.50000000, 0.03125000, 0.02500000
3291, 0.50000000, 0.03125000, 0.03125000
3292, 0.50000000, 0.03125000, 0.03750000
3293, 0.50000000, 0.03125000, 0.04375000
3294, 0.50000000, 0.03125000, 0.05000000
3295, 0.50000000, 0.03750000, 0.00000000
3296, 0.50000000, 0.03750000, 0.00625000
3297, 0.50000000, 0.03750000, 0.01250000
3298, 0.50000000, 0.03750000, 0.01875000
3299, 0.50000000, 0.03750000, 0.02500000
3300, 0.50000000, 0.03750000, 0.03125000
3301, 0.50000000, 0.03750000, 0.03750000
3302, 0.50000000, 0.03750000, 0.04375000
3303, 0.50000000, 0.03750000, 0.05000000
3304, 0.50000000, 0.04375000, 0.00000000
3305, 0.50000000, 0.04375000, 0.00625000
3306, 0.50000000, 0.04375000, 0.01250000
3307, 0.50000000, 0.04375000, 0.01875000
3308, 0.50000000, 0.04375000, 0.02500000
3309, 0.50000000, 0.04375000, 0.03125000
3310, 0.50000000, 0.04375000, 0.03750000
3311, 0.50000000, 0.04375000, 0.04375000
3312, 0.50000000, 0.04375000, 0.05000000
3313, 0.50000000, 0.05000000, 0.00000000
3314, 0.50000000, 0.05000000, 0.00625000
3315, 0.50000000, 0.05000000, 0.01250000
3316, 0.50000000, 0.05000000, 0.01875000
3317, 0.50000000, 0.05000000, 0.02500000
3318, 0.50000000, 0.05000000, 0.03125000
3319, 0.50000000, 0.05000000, 0.03750000
3320, 0.50000000, 0.05000000, 0.04375000
3321, 0.50000000, 0.05000000, 0.05000000
3322, 0.51250000, 0.00000000, 0.00000000
3323, 0.51250000, 0.00000000, 0.00625000
3324, 0.51250000, 0.00000000, 0.01250000
3325, 0.51250000, 0.00000000, 0.01875000
3326, 0.51250000, 0.00000000, 0.02500000
3327, 0.51250000, 0.00000000, 0.03125000
3328, 0.51250000, 0.00000000, 0.03750000
3329, 0.51250000, 0.00000000, 0.04375000
3330, 0.51250000, 0.00000000, 0.05000000
3331, 0.51250000, 0.00625000, 0.00000000
3332, 0.51250000, 0.00625000, 0.00625000
3333, 0.51250000, 0.00625000, 0.01250000
3334, 0.51250000, 0.00625000, 0.01875000
3335, 0.51250000, 0.00625000, 0.02500000
3336, 0.51250000, 0.00625000, 0.03125000
3337, 0.51250000, 0.00625000, 0.03750000
3338, 0.51250000, 0.00625000, 0.04375000
3339, 0.51250000, 0.00625000, 0.05000000
3340, 0.51250000, 0.01250000, 0.00000000
3341, 0.51250000, 0.01250000, 0.00625000
3342, 0.51250000, 0.01250000, 0.01250000
3343, 0.51250000, 0.01250000, 0.01875000
3344, 0.51250000, 0.01250000, 0.02500000
3345, 0.51250000, 0.01250000, 0.03125000
3346, 0.51250000, 0.01250000, 0.03750000
3347, 0.51250000, 0.01250000, 0.04375000
3348, 0.51250000, 0.01250000, 0.05000000
3349, 0.51250000, 0.01875000, 0.00000000
3350, 0.51250000, 0.01875000, 0.00625000
3351, 0.51250000, 0.01875000, 0.01250000
3352, 0.51250000, 0.01875000, 0.01875000
3353, 0.51250000, 0.01875000, 0.02500000
3354, 0.51250000, 0.01875000, 0.03125000
3355, 0.51250000, 0.01875000, 0.03750000
3356, 0.51250000, 0.01875000, 0.04375000
3357, 0.51250000, 0.01875000, 0.05000000
3358, 0.51250000, 0.02500000, 0.00000000
3359, 0.51250000, 0.02500000, 0.00625000
3360, 0.51250000, 0.02500000, 0.01250000
3361, 0.51250000, 0.02500000, 0.01875000
3362, 0.51250000, 0.02500000, 0.02500000
3363, 0.51250000, 0.02500000, 0.03125000
3364, 0.51250000, 0.02500000, 0.03750000
3365, 0.51250000, 0.02500000, 0.04375000
3366, 0.51250000, 0.02500000, 0.05000000
3367, 0.51250000, 0.03125000, 0.00000000
3368, 0.51250000, 0.03125000, 0.00625000
3369, 0.51250000, 0.03125000, 0.01250000
3370, 0.51250000, 0.03125000, 0.01875000
3371, 0.51250000, 0.03125000, 0.02500000
3372, 0.51250000, 0.03125000, 0.03125000
3373, 0.51250000, 0.03125000, 0.03750000
3374, 0.51250000, 0.03125000, 0.04375000
3375, 0.51250000, 0.03125000, 0.05000000
3376, 0.51250000, 0.03750000, 0.00000000
3377, 0.51250000, 0.03750000, 0.00625000
3378, 0.51250000, 0.03750000, 0.01250000
3379, 0.51250000, 0.03750000, 0.01875000
3380, 0.51250000, 0.03750000, 0.02500000
3381, 0.51250000, 0.03750000, 0.03125000
3382, 0.51250000, 0.03750000, 0.03750000
3383, 0.51250000, 0.03750000, 0.04375000
3384, 0.51250000, 0.03750000, 0.05000000
3385, 0.51250000, 0.04375000, 0.00000000
3386, 0.51250000, 0.04375000, 0.00625000
3387, 0.51250000, 0.04375000, 0.01250000
3388, 0.51250000, 0.04375000, 0.01875000
3389, 0.51250000, 0.04375000, 0.02500000
3390, 0.51250000, 0.04375000, 0.03125000
3391, 0.51250000, 0.04375000, 0.03750000
3392, 0.51250000, 0.04375000, 0.04375000
3393, 0.51250000, 0.04375000, 0.05000000
3394, 0.51250000, 0.05000000, 0.00000000
3395, 0.51250000, 0.05000000, 0.00625000
3396, 0.51250000, 0.05000000, 0.01250000
3397, 0.51250000, 0.05000000, 0.01875000
3398, 0.51250000, 0.05000000, 0.02500000
3399, 0.51250000, 0.05000000, 0.03125000
3400, 0.51250000, 0.05000000, 0.03750000
3401, 0.51250000, 0.05000000, 0.04375000
3402, 0.51250000, 0.05000000, 0.05000000
3403, 0.52500000, 0.00000000, 0.00000000
3404, 0.52500000, 0.00000000, 0.00625000
3405, 0.52500000, 0.00000000, 0.01250000
3406, 0.52500000, 0.00000000, 0.01875000
3407, 0.52500000, 0.00000000, 0.02500000
3408, 0.52500000, 0.00000000, 0.03125000
3409, 0.52500000, 0.00000000, 0.03750000
3410, 0.52500000, 0.00000000, 0.04375000
3411, 0.52500000, 0.00000000, 0.05000000
3412, 0.52500000, 0.00625000, 0.00000000
3413, 0.52500000, 0.00625000, 0.00625000
3414, 0.52500000, 0.00625000, 0.01250000
3415, 0.52500000, 0.00625000, 0.01875000
3416, 0.52500000, 0.00625000, 0.02500000
3417, 0.52500000, 0.00625000, 0.03125000
3418, 0.52500000, 0.00625000, 0.03750000
3419, 0.52500000, 0.00625000, 0.04375000
3420, 0.52500000, 0.00625000, 0.05000000
3421, 0.52500000, 0.01250000, 0.00000000
3422, 0.52500000, 0.01250000, 0.00625000
3423, 0.52500000, 0.01250000, 0.01250000
3424, 0.52500000, 0.01250000, 0.01875000
3425, 0.52500000, 0.01250000, 0.02500000
3426, 0.52500000, 0.01250000, 0.03125000
3427, 0.52500000, 0.01250000, 0.03750000
3428, 0.52500000, 0.01250000, 0.04375000
3429, 0.52500000, 0.01250000, 0.05000000
3430, 0.52500000, 0.01875000, 0.00000000
3431, 0.52500000, 0.01875000, 0.00625000
3432, 0.52500000, 0.01875000, 0.01250000
3433, 0.52500000, 0.01875000, 0.01875000
3434, 0.52500000, 0.01875000, 0.02500000
3435, 0.52500000, 0.01875000, 0.03125000
3436, 0.52500000, 0.01875000, 0.03750000
3437, 0.52500000, 0.01875000, 0.04375000
3438, 0.52500000, 0.01875000, 0.05000000
3439, 0.52500000, 0.02500000, 0.00000000
3440, 0.52500000, 0.02500000, 0.00625000
3441, 0.52500000, 0.02500000, 0.01250000
3442, 0.52500000, 0.02500000, 0.01875000
3443, 0.52500000, 0.02500000, 0.02500000
3444, 0.52500000, 0.02500000, 0.03125000
3445, 0.52500000, 0.02500000, 0.03750000
3446, 0.52500000, 0.02500000, 0.04375000
3447, 0.52500000, 0.02500000, 0.05000000
3448, 0.52500000, 0.03125000, 0.00000000
3449, 0.52500000, 0.03125000, 0.00625000
3450, 0.52500000, 0.03125000, 0.01250000
3451, 0.52500000, 0.03125000, 0.01875000
3452, 0.52500000, 0.03125000, 0.02500000
3453, 0.52500000, 0.03125000, 0.03125000
3454, 0.52500000, 0.03125000, 0.03750000
3455, 0.52500000, 0.03125000, 0.04375000
3456, 0.52500000, 0.03125000, 0.05000000
3457, 0.52500000, 0.03750000, 0.00000000
3458, 0.52500000, 0.03750000, 0.00625000
3459, 0.52500000, 0.03750000, 0.01250000
3460, 0.52500000, 0.03750000, 0.01875000
3461, 0.52500000, 0.03750000, 0.02500000
3462, 0.52500000, 0.03750000, 0.03125000
3463, 0.52500000, 0.03750000, 0.03750000
3464, 0.52500000, 0.03750000, 0.04375000
3465, 0.52500000, 0.03750000, 0.05000000
3466, 0.52500000, 0.04375000, 0.00000000
3467, 0.52500000, 0.04375000, 0.00625000
3468, 0.52500000, 0.04375000, 0.01250000
3469, 0.52500000, 0.04375000, 0.01875000
3470, 0.52500000, 0.04375000, 0.02500000
3471, 0.52500000, 0.04375000, 0.03125000
3472, 0.52500000, 0.04375000, 0.03750000
3473, 0.52500000, 0.04375000, 0.04375000
3474, 0.52500000, 0.04375000, 0.05000000
3475, 0.52500000, 0.05000000, 0.00000000
3476, 0.52500000, 0.05000000, 0.00625000
3477, 0.52500000, 0.05000000, 0.01250000
3478, 0.52500000, 0.05000000, 0.01875000
3479, 0.52500000, 0.05000000, 0.02500000
3480, 0.52500000, 0.05000000, 0.03125000
3481, 0.52500000, 0.05000000, 0.03750000
3482, 0.52500000, 0.05000000, 0.04375000
3483, 0.52500000, 0.05000000, 0.05000000
3484, 0.53750000, 0.00000000, 0.00000000
3485, 0.53750000, 0.00000000, 0.00625000
3486, 0.53750000, 0.00000000, 0.01250000
3487, 0.53750000, 0.00000000, 0.01875000
3488, 0.53750000, 0.00000000, 0.02500000
3489, 0.53750000, 0.00000000, 0.03125000
3490, 0.53750000, 0.00000000, 0.03750000
3491, 0.53750000, 0.00000000, 0.04375000
3492, 0.53750000, 0.00000000, 0.05000000
3493, 0.53750000, 0.00625000, 0.00000000
3494, 0.53750000, 0.00625000, 0.00625000
3495, 0.53750000, 0.00625000, 0.01250000
3496, 0.53750000, 0.00625000, 0.01875000
3497, 0.53750000, 0.00625000, 0.02500000
3498, 0.53750000, 0.00625000, 0.03125000
3499, 0.53750000, 0.00625000, 0.03750000
3500, 0.53750000, 0.00625000, 0.04375000
3501, 0.53750000, 0.00625000, 0.05000000
3502, 0.53750000, 0.01250000, 0.00000000
3503, 0.53750000, 0.01250000, 0.00625000
3504, 0.53750000, 0.01250000, 0.01250000
3505, 0.53750000, 0.01250000, 0.01875000
3506, 0.53750000, 0.01250000, 0.02500000
3507, 0.53750000, 0.01250000, 0.03125000
3508, 0.53750000, 0.01250000, 0.03750000
3509, 0.53750000, 0.01250000, 0.04375000
3510, 0.53750000, 0.01250000, 0.05000000
3511, 0.53750000, 0.01875000, 0.00000000
3512, 0.53750000, 0.01875000, 0.00625000
3513, 0.53750000, 0.01875000, 0.01250000
3514, 0.53750000, 0.01875000, 0.01875000
3515, 0.53750000, 0.01875000, 0.02500000
3516, 0.53750000, 0.01875000, 0.03125000
3517, 0.53750000, 0.01875000, 0.03750000
3518, 0.53750000, 0.01875000, 0.04375000
3519, 0.53750000, 0.01875000, 0.05000000
3520, 0.53750000, 0.02500000, 0.00000000
3521, 0.53750000, 0.02500000, 0.00625000
3522, 0.53750000, 0.02500000, 0.01250000
3523, 0.53750000, 0.02500000, 0.01875000
3524, 0.53750000, 0.02500000, 0.02500000
3525, 0.53750000, 0.02500000, 0.03125000
3526, 0.53750000, 0.02500000, 0.03750000
3527, 0.53750000, 0.02500000, 0.04375000
3528, 0.53750000, 0.02500000, 0.05000000
3529, 0.53750000, 0.03125000, 0.00000000
3530, 0.53750000, 0.03125000, 0.00625000
3531, 0.53750000, 0.03125000, 0.01250000
3532, 0.53750000, 0.03125000, 0.01875000
3533, 0.53750000, 0.03125000, 0.02500000
3534, 0.53750000, 0.03125000, 0.03125000
3535, 0.53750000, 0.03125000, 0.03750000
3536, 0.53750000, 0.03125000, 0.04375000
3537, 0.53750000, 0.03125000, 0.05000000
3538, 0.53750000, 0.03750000, 0.00000000
3539, 0.53750000, 0.03750000, 0.00625000
3540, 0.53750000, 0.03750000, 0.01250000
3541, 0.53750000, 0.03750000, 0.01875000
3542, 0.53750000, 0.03750000, 0.02500000
3543, 0.53750000, 0.03750000, 0.03125000
3544, 0.53750000, 0.03750000, 0.03750000
3545, 0.53750000, 0.03750000, 0.04375000
3546, 0.53750000, 0.03750000, 0.05000000
3547, 0.53750000, 0.04375000, 0.00000000
3548, 0.53750000, 0.04375000, 0.00625000
3549, 0.53750000, 0.04375000, 0.01250000
3550, 0.53750000, 0.04375000, 0.01875000
3551, 0.53750000, 0.04375000, 0.02500000
3552, 0.53750000, 0.04375000, 0.03125000
3553, 0.53750000, 0.04375000, 0.03750000
3554, 0.53750000, 0.04375000, 0.04375000
3555, 0.53750000, 0.04375000, 0.05000000
3556, 0.53750000, 0.05000000, 0.00000000
3557, 0.53750000, 0.05000000, 0.00625000
3558, 0.53750000, 0.05000000, 0.01250000
3559, 0.53750000, 0.05000000, 0.01875000
3560, 0.53750000, 0.05000000, 0.02500000
3561, 0.53750000, 0.05000000, 0.03125000
3562, 0.53750000, 0.05000000, 0.03750000
3563, 0.53750000, 0.05000000, 0.04375000
3564, 0.53750000, 0.05000000, 0.05000000
3565, 0.55000000, 0.00000000, 0.00000000
3566, 0.55000000, 0.00000000, 0.00625000
3567, 0.55000000, 0.00000000, 0.01250000
3568, 0.55000000, 0.00000000, 0.01875000
3569, 0.55000000, 0.00000000, 0.02500000
3570, 0.55000000, 0.00000000, 0.03125000
3571, 0.55000000, 0.00000000, 0.03750000
3572, 0.55000000, 0.00000000, 0.04375000
3573, 0.55000000, 0.00000000, 0.05000000
3574, 0.55000000, 0.00625000, 0.00000000
3575, 0.55000000, 0.00625000, 0.00625000
3576, 0.55000000, 0.00625000, 0.01250000
3577, 0.55000000, 0.00625000, 0.01875000
3578, 0.55000000, 0.00625000, 0.02500000
3579, 0.55000000, 0.00625000, 0.03125000
3580, 0.55000000, 0.00625000, 0.03750000
3581, 0.55000000, 0.00625000, 0.04375000
3582, 0.55000000, 0.00625000, 0.05000000
3583, 0.55000000, 0.01250000, 0.00000000
3584, 0.55000000, 0.01250000, 0.00625000
3585, 0.55000000, 0.01250000, 0.01250000
3586, 0.55000000, 0.01250000, 0.01875000
3587, 0.55000000, 0.01250000, 0.02500000
3588, 0.55000000, 0.01250000, 0.03125000
3589, 0.55000000, 0.01250000, 0.03750000
3590, 0.55000000, 0.01250000, 0.04375000
3591, 0.55000000, 0.01250000, 0.05000000
3592, 0.55000000, 0.01875000, 0.00000000
3593, 0.55000000, 0.01875000, 0.00625000
3594, 0.55000000, 0.01875000, 0.01250000
3595, 0.55000000, 0.01875000, 0.01875000
3596, 0.55000000, 0.01875000, 0.02500000
3597, 0.55000000, 0.01875000, 0.03125000
3598, 0.55000000, 0.01875000, 0.03750000
3599, 0.55000000, 0.01875000, 0.04375000
3600, 0.55000000, 0.01875000, 0.05000000
3601, 0.55000000, 0.02500000, 0.00000000
3602, 0.55000000, 0.02500000, 0.00625000
3603, 0.55000000, 0.02500000, 0.01250000
3604, 0.55000000, 0.02500000, 0.01875000
3605, 0.55000000, 0.02500000, 0.02500000
3606, 0.55000000, 0.02500000, 0.03125000
3607, 0.55000000, 0.02500000, 0.03750000
3608, 0.55000000, 0.02500000, 0.04375000
3609, 0.55000000, 0.02500000, 0.05000000
3610, 0.55000000, 0.03125000, 0.00000000
3611, 0.55000000, 0.03125000, 0.00625000
3612, 0.55000000, 0.03125000, 0.01250000
3613, 0.55000000, 0.03125000, 0.01875000
3614, 0.55000000, 0.03125000, 0.02500000
3615, 0.55000000, 0.03125000, 0.03125000
3616, 0.55000000, 0.03125000, 0.03750000
3617, 0.55000000, 0.03125000, 0.04375000
3618, 0.55000000, 0.03125000, 0.05000000
3619, 0.55000000, 0.03750000, 0.00000000
3620, 0.55000000, 0.03750000, 0.00625000
3621, 0.55000000, 0.03750000, 0.01250000
3622, 0.55000000, 0.03750000, 0.01875000
3623, 0.55000000, 0.03750000, 0.02500000
3624, 0.55000000, 0.03750000, 0.03125000
3625, 0.55000000, 0.03750000, 0.03750000
3626, 0.55000000, 0.03750000, 0.04375000
3627, 0.55000000, 0.03750000, 0.05000000
3628, 0.55000000, 0.04375000, 0.00000000
3629, 0.55000000, 0.04375000, 0.00625000
3630, 0.55000000, 0.04375000, 0.01250000
3631, 0.55000000, 0.04375000, 0.01875000
3632, 0.55000000, 0.04375000, 0.02500000
3633, 0.55000000, 0.04375000, 0.03125000
3634, 0.55000000, 0.04375000, 0.03750000
3635, 0.55000000, 0.04375000, 0.04375000
3636, 0.55000000, 0.04375000, 0.05000000
3637, 0.55000000, 0.05000000, 0.00000000
3638, 0.55000000, 0.05000000, 0.00625000
3639, 0.55000000, 0.05000000, 0.01250000
3640, 0.55000000, 0.05000000, 0.01875000
3641, 0.55000000, 0.05000000, 0.02500000
3642, 0.55000000, 0.05000000, 0.03125000
3643, 0.55000000, 0.05000000, 0.03750000
3644, 0.55000000, 0.05000000, 0.04375000
3645, 0.55000000, 0.05000000, 0.05000000
3646, 0.56250000, 0.00000000, 0.00000000
3647, 0.56250000, 0.00000000, 0.00625000
3648, 0.56250000, 0.00000000, 0.01250000
3649, 0.56250000, 0.00000000, 0.01875000
3650, 0.56250000, 0.00000000, 0.02500000
3651, 0.56250000, 0.00000000, 0.03125000
3652, 0.56250000, 0.00000000, 0.03750000
3653, 0.56250000, 0.00000000, 0.04375000
3654, 0.56250000, 0.00000000, 0.05000000
3655, 0.56250000, 0.00625000, 0.00000000
3656, 0.56250000, 0.00625000, 0.00625000
3657, 0.56250000, 0.00625000, 0.01250000
3658, 0.56250000, 0.00625000, 0.01875000
3659, 0.56250000, 0.00625000, 0.02500000
3660, 0.56250000, 0.00625000, 0.03125000
3661, 0.56250000, 0.00625000, 0.03750000
3662, 0.56250000, 0.00625000, 0.04375000
3663, 0.56250000, 0.00625000, 0.05000000
3664, 0.56250000, 0.01250000, 0.00000000
3665, 0.56250000, 0.01250000, 0.00625000
3666, 0.56250000, 0.01250000, 0.01250000
3667, 0.56250000, 0.01250000, 0.01875000
3668, 0.56250000, 0.01250000, 0.02500000
3669, 0.56250000, 0.01250000, 0.03125000
3670, 0.56250000, 0.01250000, 0.03750000
3671, 0.56250000, 0.01250000, 0.04375000
3672, 0.56250000, 0.01250000, 0.05000000
3673, 0.56250000, 0.01875000, 0.00000000
3674, 0.56250000, 0.01875000, 0.00625000
3675, 0.56250000, 0.01875000, 0.01250000
3676, 0.56250000, 0.01875000, 0.01875000
3677, 0.56250000, 0.01875000, 0.02500000
3678, 0.56250000, 0.01875000, 0.03125000
3679, 0.56250000, 0.01875000, 0.03750000
3680, 0.56250000, 0.01875000, 0.04375000
3681, 0.56250000, 0.01875000, 0.05000000
3682, 0.56250000, 0.02500000, 0.00000000
3683, 0.56250000, 0.02500000, 0.00625000
3684, 0.56250000, 0.02500000, 0.01250000
3685, 0.56250000, 0.02500000, 0.01875000
3686, 0.56250000, 0.02500000, 0.02500000
3687, 0.56250000, 0.02500000, 0.03125000
3688, 0.56250000, 0.02500000, 0.03750000
3689, 0.56250000, 0.02500000, 0.04375000
3690, 0.56250000, 0.02500000, 0.05000000
3691, 0.56250000, 0.03125000, 0.00000000
3692, 0.56250000, 0.03125000, 0.00625000
3693, 0.56250000, 0.03125000, 0.01250000
3694, 0.56250000, 0.03125000, 0.01875000
3695, 0.56250000, 0.03125000, 0.02500000
3696, 0.56250000, 0.03125000, 0.03125000
3697, 0.56250000, 0.03125000, 0.03750000
3698, 0.56250000, 0.03125000, 0.04375000
3699, 0.56250000, 0.03125000, 0.05000000
3700, 0.56250000, 0.03750000, 0.00000000
3701, 0.56250000, 0.03750000, 0.00625000
3702, 0.56250000, 0.03750000, 0.01250000
3703, 0.56250000, 0.03750000, 0.01875000
3704, 0.56250000, 0.03750000, 0.02500000
3705, 0.56250000, 0.03750000, 0.03125000
3706, 0.56250000, 0.03750000, 0.03750000
3707, 0.56250000, 0.03750000, 0.04375000
3708, 0.56250000, 0.03750000, 0.05000000
3709, 0.56250000, 0.04375000, 0.00000000
3710, 0.56250000, 0.04375000, 0.00625000
3711, 0.56250000, 0.04375000, 0.01250000
3712, 0.56250000, 0.04375000, 0.01875000
3713, 0.56250000, 0.04375000, 0.02500000
3714, 0.56250000, 0.04375000, 0.03125000
3715, 0.56250000, 0.04375000, 0.03750000
3716, 0.56250000, 0.04375000, 0.04375000
3717, 0.56250000, 0.04375000, 0.05000000
3718, 0.56250000, 0.05000000, 0.00000000
3719, 0.56250000, 0.05000000, 0.00625000
3720, 0.56250000, 0.05000000, 0.01250000
3721, 0.56250000, 0.05000000, 0.01875000
3722, 0.56250000, 0.05000000, 0.02500000
3723, 0.56250000, 0.05000000, 0.03125000
3724, 0.56250000, 0.05000000, 0.03750000
3725, 0.56250000, 0.05000000, 0.04375000
3726, 0.56250000, 0.05000000, 0.05000000
3727, 0.57500000, 0.00000000, 0.00000000
3728, 0.57500000, 0.00000000, 0.00625000
3729, 0.57500000, 0.00000000, 0.01250000
3730, 0.57500000, 0.00000000, 0.01875000
3731, 0.57500000, 0.00000000, 0.02500000
3732, 0.57500000, 0.00000000, 0.03125000
3733, 0.57500000, 0.00000000, 0.03750000
3734, 0.57500000, 0.00000000, 0.04375000
3735, 0.57500000, 0.00000000, 0.05000000
3736, 0.57500000, 0.00625000, 0.00000000
3737, 0.57500000, 0.00625000, 0.00625000
3738, 0.57500000, 0.00625000, 0.01250000
3739, 0.57500000, 0.00625000, 0.01875000
3740, 0.57500000, 0.00625000, 0.02500000
3741, 0.57500000, 0.00625000, 0.03125000
3742, 0.57500000, 0.00625000, 0.03750000
3743, 0.57500000, 0.00625000, 0.04375000
3744, 0.57500000, 0.00625000, 0.05000000
3745, 0.57500000, 0.01250000, 0.00000000
3746, 0.57500000, 0.01250000, 0.00625000
3747, 0.57500000, 0.01250000, 0.01250000
3748, 0.57500000, 0.01250000, 0.01875000
3749, 0.57500000, 0.01250000, 0.02500000
3750, 0.57500000, 0.01250000, 0.03125000
3751, 0.57500000, 0.01250000, 0.03750000
3752, 0.57500000, 0.01250000, 0.04375000
3753, 0.57500000, 0.01250000, 0.05000000
3754, 0.57500000, 0.01875000, 0.00000000
3755, 0.57500000, 0.01875000, 0.00625000
3756, 0.57500000, 0.01875000, 0.01250000
3757, 0.57500000, 0.01875000, 0.01875000
3758, 0.57500000, 0.01875000, 0.02500000
3759, 0.57500000, 0.01875000, 0.03125000
3760, 0.57500000, 0.01875000, 0.03750000
3761, 0.57500000, 0.01875000, 0.04375000
3762, 0.57500000, 0.01875000, 0.05000000
3763, 0.57500000, 0.02500000, 0.00000000
3764, 0.57500000, 0.02500000, 0.00625000
3765, 0.57500000, 0.02500000, 0.01250000
3766, 0.57500000, 0.02500000, 0.01875000
3767, 0.57500000, 0.02500000, 0.02500000
3768, 0.57500000, 0.02500000, 0.03125000
3769, 0.57500000, 0.02500000, 0.03750000
3770, 0.57500000, 0.02500000, 0.04375000
3771, 0.57500000, 0.02500000, 0.05000000
3772, 0.57500000, 0.03125000, 0.00000000
3773, 0.57500000, 0.03125000, 0.00625000
3774, 0.57500000, 0.03125000, 0.01250000
3775, 0.57500000, 0.03125000, 0.01875000
3776, 0.57500000, 0.03125000, 0.02500000
3777, 0.57500000, 0.03125000, 0.03125000
3778, 0.57500000, 0.03125000, 0.03750000
3779, 0.57500000, 0.03125000, 0.04375000
3780, 0.57500000, 0.03125000, 0.05000000
3781, 0.57500000, 0.03750000, 0.00000000
3782, 0.57500000, 0.03750000, 0.00625000
3783, 0.57500000, 0.03750000, 0.01250000
3784, 0.57500000, 0.03750000, 0.01875000
3785, 0.57500000, 0.03750000, 0.02500000
3786, 0.57500000, 0.03750000, 0.03125000
3787, 0.57500000, 0.03750000, 0.03750000
3788, 0.57500000, 0.03750000, 0.04375000
3789, 0.57500000, 0.03750000, 0.05000000
3790, 0.57500000, 0.04375000, 0.00000000
3791, 0.57500000, 0.04375000, 0.00625000
3792, 0.57500000, 0.04375000, 0.01250000
3793, 0.57500000, 0.04375000, 0.01875000
3794, 0.57500000, 0.04375000, 0.02500000
3795, 0.57500000, 0.04375000, 0.03125000
3796, 0.57500000, 0.04375000, 0.03750000
3797, 0.57500000, 0.04375000, 0.04375000
3798, 0.57500000, 0.04375000, 0.05000000
3799, 0.57500000, 0.05000000, 0.00000000
3800, 0.57500000, 0.05000000, 0.00625000
3801, 0.57500000, 0.05000000, 0.01250000
3802, 0.57500000, 0.05000000, 0.01875000
3803, 0.57500000, 0.05000000, 0.02500000
3804, 0.57500000, 0.05000000, 0.03125000
3805, 0.57500000, 0.05000000, 0.03750000
3806, 0.57500000, 0.05000000, 0.04375000
3807, 0.57500000, 0.05000000, 0.05000000
3808, 0.58750000, 0.00000000, 0.00000000
3809, 0.58750000, 0.00000000, 0.00625000
3810, 0.58750000, 0.00000000, 0.01250000
3811, 0.58750000, 0.00000000, 0.01875000
3812, 0.58750000, 0.00000000, 0.02500000
3813, 0.58750000, 0.00000000, 0.03125000
3814, 0.58750000, 0.00000000, 0.03750000
3815, 0.58750000, 0.00000000, 0.04375000
3816, 0.58750000, 0.00000000, 0.05000000
3817, 0.58750000, 0.00625000, 0.00000000
3818, 0.58750000, 0.00625000, 0.00625000
3819, 0.58750000, 0.00625000, 0.01250000
3820, 0.58750000, 0.00625000, 0.01875000
3821, 0.58750000, 0.00625000, 0.02500000
3822, 0.58750000, 0.00625000, 0.03125000
3823, 0.58750000, 0.00625000, 0.03750000
3824, 0.58750000, 0.00625000, 0.04375000
3825, 0.58750000, 0.00625000, 0.05000000
3826, 0.58750000, 0.01250000, 0.00000000
3827, 0.58750000, 0.01250000, 0.00625000
3828, 0.58750000, 0.01250000, 0.01250000
3829, 0.58750000, 0.01250000, 0.01875000
3830, 0.58750000, 0.01250000, 0.02500000
3831, 0.58750000, 0.01250000, 0.03125000
3832, 0.58750000, 0.01250000, 0.03750000
3833, 0.58750000, 0.01250000, 0.04375000
3834, 0.58750000, 0.01250000, 0.05000000
3835, 0.58750000, 0.01875000, 0.00000000
3836, 0.58750000, 0.01875000, 0.00625000
3837, 0.58750000, 0.01875000, 0.01250000
3838, 0.58750000, 0.01875000, 0.01875000
3839, 0.58750000, 0.01875000, 0.02500000
3840, 0.58750000, 0.01875000, 0.03125000
3841, 0.58750000, 0.01875000, 0.03750000
3842, 0.58750000, 0.01875000, 0.04375000
3843, 0.58750000, 0.01875000, 0.05000000
3844, 0.58750000, 0.02500000, 0.00000000
3845, 0.58750000, 0.02500000, 0.00625000
3846, 0.58750000, 0.02500000, 0.01250000
3847, 0.58750000, 0.02500000, 0.01875000
3848, 0.58750000, 0.02500000, 0.02500000
3849, 0.58750000, 0.02500000, 0.03125000
3850, 0.58750000, 0.02500000, 0.03750000
3851, 0.58750000, 0.02500000, 0.04375000
3852, 0.58750000, 0.02500000, 0.05000000
3853, 0.58750000, 0.03125000, 0.00000000
3854, 0.58750000, 0.03125000, 0.00625000
3855, 0.58750000, 0.03125000, 0.01250000
3856, 0.58750000, 0.03125000, 0.01875000
3857, 0.58750000, 0.03125000, 0.02500000
3858, 0.58750000, 0.03125000, 0.03125000
3859, 0.58750000, 0.03125000, 0.03750000
3860, 0.58750000, 0.03125000, 0.04375000
3861, 0.58750000, 0.03125000, 0.05000000
3862, 0.58750000, 0.03750000, 0.00000000
3863, 0.58750000, 0.03750000, 0.00625000
3864, 0.58750000, 0.03750000, 0.01250000
3865, 0.58750000, 0.03750000, 0.01875000
3866, 0.58750000, 0.03750000, 0.02500000
3867, 0.58750000, 0.03750000, 0.03125000
3868, 0.58750000, 0.03750000, 0.03750000
3869, 0.58750000, 0.03750000, 0.04375000
3870, 0.58750000, 0.03750000, 0.05000000
3871, 0.58750000, 0.04375000, 0.00000000
3872, 0.58750000, 0.04375000, 0.00625000
3873, 0.58750000, 0.04375000, 0.01250000
3874, 0.58750000, 0.04375000, 0.01875000
3875, 0.58750000, 0.04375000, 0.02500000
3876, 0.58750000, 0.04375000, 0.03125000
3877, 0.58750000, 0.04375000, 0.03750000
3878, 0.58750000, 0.04375000, 0.04375000
3879, 0.58750000, 0.04375000, 0.05000000
3880, 0.58750000, 0.05000000, 0.00000000
3881, 0.58750000, 0.05000000, 0.00625000
3882, 0.58750000, 0.05000000, 0.01250000
3883, 0.58750000, 0.05000000, 0.01875000
3884, 0.58750000, 0.05000000, 0.02500000
3885, 0.58750000, 0.05000000, 0.03125000
3886, 0.58750000, 0.05000000, 0.03750000
3887, 0.58750000, 0.05000000, 0.04375000
3888, 0.58750000, 0.05000000, 0.05000000
3889, 0.60000000, 0.00000000, 0.00000000
3890, 0.60000000, 0.00000000, 0.00625000
3891, 0.60000000, 0.00000000, 0.01250000
3892, 0.60000000, 0.00000000, 0.01875000
3893, 0.60000000, 0.00000000, 0.02500000
3894, 0.60000000, 0.00000000, 0.03125000
3895, 0.60000000, 0.00000000, 0.03750000
3896, 0.60000000, 0.00000000, 0.04375000
3897, 0.60000000, 0.00000000, 0.05000000
3898, 0.60000000, 0.00625000, 0.00000000
3899, 0.60000000, 0.00625000, 0.00625000
3900, 0.60000000, 0.00625000, 0.01250000
3901, 0.60000000, 0.00625000, 0.01875000
3902, 0.60000000, 0.00625000, 0.02500000
3903, 0.60000000, 0.00625000, 0.03125000
3904, 0.60000000, 0.00625000, 0.03750000
3905, 0.60000000, 0.00625000, 0.04375000
3906, 0.60000000, 0.00625000, 0.05000000
3907, 0.60000000, 0.01250000, 0.00000000
3908, 0.60000000, 0.01250000, 0.00625000
3909, 0.60000000, 0.01250000, 0.01250000
3910, 0.60000000, 0.01250000, 0.01875000
3911, 0.60000000, 0.01250000, 0.02500000
3912, 0.60000000, 0.01250000, 0.03125000
3913, 0.60000000, 0.01250000, 0.03750000
3914, 0.60000000, 0.01250000, 0.04375000
3915, 0.60000000, 0.01250000, 0.05000000
3916, 0.60000000, 0.01875000, 0.00000000
3917, 0.60000000, 0.01875000, 0.00625000
3918, 0.60000000, 0.01875000, 0.01250000
3919, 0.60000000, 0.01875000, 0.01875000
3920, 0.60000000, 0.01875000, 0.02500000
3921, 0.60000000, 0.01875000, 0.03125000
3922, 0.60000000, 0.01875000, 0.03750000
3923, 0.60000000, 0.01875000, 0.04375000
3924, 0.60000000, 0.01875000, 0.05000000
3925, 0.60000000, 0.02500000, 0.00000000
3926, 0.60000000, 0.02500000, 0.00625000
3927, 0.60000000, 0.02500000, 0.01250000
3928, 0.60000000, 0.02500000, 0.01875000
3929, 0.60000000, 0.02500000, 0.02500000
3930, 0.60000000, 0.02500000, 0.03125000
3931, 0.60000000, 0.02500000, 0.03750000
3932, 0.60000000, 0.02500000, 0.04375000
3933, 0.60000000, 0.02500000, 0.05000000
3934, 0.60000000, 0.03125000, 0.00000000
3935, 0.60000000, 0.03125000, 0.00625000
3936, 0.60000000, 0.03125000, 0.01250000
3937, 0.60000000, 0.03125000, 0.01875000
3938, 0.60000000, 0.03125000, 0.02500000
3939, 0.60000000, 0.03125000, 0.03125000
3940, 0.60000000, 0.03125000, 0.03750000
3941, 0.60000000, 0.03125000, 0.04375000
3942, 0.60000000, 0.03125000, 0.05000000
3943, 0.60000000, 0.03750000, 0.00000000
3944, 0.60000000, 0.03750000, 0.00625000
3945, 0.60000000, 0.03750000, 0.01250000
3946, 0.60000000, 0.03750000, 0.01875000
3947, 0.60000000, 0.03750000, 0.02500000
3948, 0.60000000, 0.03750000, 0.03125000
3949, 0.60000000, 0.03750000, 0.03750000
3950, 0.60000000, 0.03750000, 0.04375000
3951, 0.60000000, 0.03750000, 0.05000000
3952, 0.60000000, 0.04375000, 0.00000000
3953, 0.60000000, 0.04375000, 0.00625000
3954, 0.60000000, 0.04375000, 0.01250000
3955, 0.60000000, 0.04375000, 0.01875000
3956, 0.60000000, 0.04375000, 0.02500000
3957, 0.60000000, 0.04375000, 0.03125000
3958, 0.60000000, 0.04375000, 0.03750000
3959, 0.60000000, 0.04375000, 0.04375000
3960, 0.60000000, 0.04375000, 0.05000000
3961, 0.60000000, 0.05000000, 0.00000000
3962, 0.60000000, 0.05000000, 0.00625000
3963, 0.60000000, 0.05000000, 0.01250000
3964, 0.60000000, 0.05000000, 0.01875000
3965, 0.60000000, 0.05000000, 0.02500000
3966, 0.60000000, 0.05000000, 0.03125000
3967, 0.60000000, 0.05000000, 0.03750000
3968, 0.60000000, 0.05000000, 0.04375000
3969, 0.60000000, 0.05000000, 0.05000000
3970, 0.61250000, 0.00000000, 0.00000000
3971, 0.61250000, 0.00000000, 0.00625000
3972, 0.61250000, 0.00000000, 0.01250000
3973, 0.61250000, 0.00000000, 0.01875000
3974, 0.61250000, 0.00000000, 0.02500000
3975, 0.61250000, 0.00000000, 0.03125000
3976, 0.61250000, 0.00000000, 0.03750000
3977, 0.61250000, 0.00000000, 0.04375000
3978, 0.61250000, 0.00000000, 0.05000000
3979, 0.61250000, 0.00625000, 0.00000000
3980, 0.61250000, 0.00625000, 0.00625000
3981, 0.61250000, 0.00625000, 0.01250000
3982, 0.61250000, 0.00625000, 0.01875000
3983, 0.61250000, 0.00625000, 0.02500000
3984, 0.61250000, 0.00625000, 0.03125000
3985, 0.61250000, 0.00625000, 0.03750000
3986, 0.61250000, 0.00625000, 0.04375000
3987, 0.61250000, 0.00625000, 0.05000000
3988, 0.61250000, 0.01250000, 0.00000000
3989, 0.61250000, 0.01250000, 0.00625000
3990, 0.61250000, 0.01250000, 0.01250000
3991, 0.61250000, 0.01250000, 0.01875000
3992, 0.61250000, 0.01250000, 0.02500000
3993, 0.61250000, 0.01250000, 0.03125000
3994, 0.61250000, 0.01250000, 0.03750000
3995, 0.61250000, 0.01250000, 0.04375000
3996, 0.61250000, 0.01250000, 0.05000000
3997, 0.61250000, 0.01875000, 0.00000000
3998, 0.61250000, 0.01875000, 0.00625000
3999, 0.61250000, 0.01875000, 0.01250000
4000, 0.61250000, 0.01875000, 0.01875000
4001, 0.61250000, 0.01875000, 0.02500000
4002, 0.61250000, 0.01875000, 0.03125000
4003, 0.61250000, 0.01875000, 0.03750000
4004, 0.61250000, 0.01875000, 0.04375000
4005, 0.61250000, 0.01875000, 0.05000000
4006, 0.61250000, 0.02500000, 0.00000000
4007, 0.61250000, 0.02500000, 0.00625000
4008, 0.61250000, 0.02500000, 0.01250000
4009, 0.61250000, 0.02500000, 0.01875000
4010, 0.61250000, 0.02500000, 0.02500000
4011, 0.61250000, 0.02500000, 0.03125000
4012, 0.61250000, 0.02500000, 0.03750000
4013, 0.61250000, 0.02500000, 0.04375000
4014, 0.61250000, 0.02500000, 0.05000000
4015, 0.61250000, 0.03125000, 0.00000000
4016, 0.61250000, 0.03125000, 0.00625000
4017, 0.61250000, 0.03125000, 0.01250000
4018, 0.61250000, 0.03125000, 0.01875000
4019, 0.61250000, 0.03125000, 0.02500000
4020, 0.61250000, 0.03125000, 0.03125000
4021, 0.61250000, 0.03125000, 0.03750000
4022, 0.61250000, 0.03125000, 0.04375000
4023, 0.61250000, 0.03125000, 0.05000000
4024, 0.61250000, 0.03750000, 0.00000000
4025, 0.61250000, 0.03750000, 0.00625000
4026, 0.61250000, 0.03750000, 0.01250000
4027, 0.61250000, 0.03750000, 0.01875000
4028, 0.61250000, 0.03750000, 0.02500000
4029, 0.61250000, 0.03750000, 0.03125000
4030, 0.61250000, 0.03750000, 0.03750000
4031, 0.61250000, 0.03750000, 0.04375000
4032, 0.61250000, 0.03750000, 0.05000000
4033, 0.61250000, 0.04375000, 0.00000000
4034, 0.61250000, 0.04375000, 0.00625000
4035, 0.61250000, 0.04375000, 0.01250000
4036, 0.61250000, 0.04375000, 0.01875000
4037, 0.61250000, 0.04375000, 0.02500000
4038, 0.61250000, 0.04375000, 0.03125000
4039, 0.61250000, 0.04375000, 0.03750000
4040, 0.61250000, 0.04375000, 0.04375000
4041, 0.61250000, 0.04375000, 0.05000000
4042, 0.61250000, 0.05000000, 0.00000000
4043, 0.61250000, 0.05000000, 0.00625000
4044, 0.61250000, 0.05000000, 0.01250000
4045, 0.61250000, 0.05000000, 0.01875000
4046, 0.61250000, 0.05000000, 0.02500000
4047, 0.61250000, 0.05000000, 0.03125000
4048, 0.61250000, 0.05000000, 0.03750000
4049, 0.61250000, 0.05000000, 0.04375000
4050, 0.61250000, 0.05000000, 0.05000000
4051, 0.62500000, 0.00000000, 0.00000000
4052, 0.62500000, 0.00000000, 0.00625000
4053, 0.62500000, 0.00000000, 0.01250000
4054, 0.62500000, 0.00000000, 0.01875000
4055, 0.62500000, 0.00000000, 0.02500000
4056, 0.62500000, 0.00000000, 0.03125000
4057, 0.62500000, 0.00000000, 0.03750000
4058, 0.62500000, 0.00000000, 0.04375000
4059, 0.62500000, 0.00000000, 0.05000000
4060, 0.62500000, 0.00625000, 0.00000000
4061, 0.62500000, 0.00625000, 0.00625000
4062, 0.62500000, 0.00625000, 0.01250000
4063, 0.62500000, 0.00625000, 0.01875000
4064, 0.62500000, 0.00625000, 0.02500000
4065, 0.62500000, 0.00625000, 0.03125000
4066, 0.62500000, 0.00625000, 0.03750000
4067, 0.62500000, 0.00625000, 0.04375000
4068, 0.62500000, 0.00625000, 0.05000000
4069, 0.62500000, 0.01250000, 0.00000000
4070, 0.62500000, 0.01250000, 0.00625000
4071, 0.62500000, 0.01250000, 0.01250000
4072, 0.62500000, 0.01250000, 0.01875000
4073, 0.62500000, 0.01250000, 0.02500000
4074, 0.62500000, 0.01250000, 0.03125000
4075, 0.62500000, 0.01250000, 0.03750000
4076, 0.62500000, 0.01250000, 0.04375000
4077, 0.62500000, 0.01250000, 0.05000000
4078, 0.62500000, 0.01875000, 0.00000000
4079, 0.62500000, 0.01875000, 0.00625000
4080, 0.62500000, 0.01875000, 0.01250000
4081, 0.62500000, 0.01875000, 0.01875000
4082, 0.62500000, 0.01875000, 0.02500000
4083, 0.62500000, 0.01875000, 0.03125000
4084, 0.62500000, 0.01875000, 0.03750000
4085, 0.62500000, 0.01875000, 0.04375000
4086, 0.62500000, 0.01875000, 0.05000000
4087, 0.62500000, 0.02500000, 0.00000000
4088, 0.62500000, 0.02500000, 0.00625000
4089, 0.62500000, 0.02500000, 0.01250000
4090, 0.62500000, 0.02500000, 0.01875000
4091, 0.62500000, 0.02500000, 0.02500000
4092, 0.62500000, 0.02500000, 0.03125000
4093, 0.62500000, 0.02500000, 0.03750000
4094, 0.62500000, 0.02500000, 0.04375000
4095, 0.62500000, 0.02500000, 0.05000000
4096, 0.62500000, 0.03125000, 0.00000000
4097, 0.62500000, 0.03125000, 0.00625000
4098, 0.62500000, 0.03125000, 0.01250000
4099, 0.62500000, 0.03125000, 0.01875000
4100, 0.62500000, 0.03125000, 0.02500000
4101, 0.62500000, 0.03125000, 0.03125000
4102, 0.62500000, 0.03125000, 0.03750000
4103, 0.62500000, 0.03125000, 0.04375000
4104, 0.62500000, 0.03125000, 0.05000000
4105, 0.62500000, 0.03750000, 0.00000000
4106, 0.62500000, 0.03750000, 0.00625000
4107, 0.62500000, 0.03750000, 0.01250000
4108, 0.62500000, 0.03750000, 0.01875000
4109, 0.62500000, 0.03750000, 0.02500000
4110, 0.62500000, 0.03750000, 0.03125000
4111, 0.62500000, 0.03750000, 0.03750000
4112, 0.62500000, 0.03750000, 0.04375000
4113, 0.62500000, 0.03750000, 0.05000000
4114, 0.62500000, 0.04375000, 0.00000000
4115, 0.62500000, 0.04375000, 0.00625000
4116, 0.62500000, 0.04375000, 0.01250000
4117, 0.62500000, 0.04375000, 0.01875000
4118, 0.62500000, 0.04375000, 0.02500000
4119, 0.62500000, 0.04375000, 0.03125000
4120, 0.62500000, 0.04375000, 0.03750000
4121, 0.62500000, 0.04375000, 0.04375000
4122, 0.62500000, 0.04375000, 0.05000000
4123, 0.62500000, 0.05000000, 0.00000000
4124, 0.62500000, 0.05000000, 0.00625000
4125, 0.62500000, 0.05000000, 0.01250000
4126, 0.62500000, 0.05000000, 0.01875000
4127, 0.62500000, 0.05000000, 0.02500000
4128, 0.62500000, 0.05000000, 0.03125000
4129, 0.62500000, 0.05000000, 0.03750000
4130, 0.62500000, 0.05000000, 0.04375000
4131, 0.62500000, 0.05000000, 0.05000000
4132, 0.63750000, 0.00000000, 0.00000000
4133, 0.63750000, 0.00000000, 0.00625000
4134, 0.63750000, 0.00000000, 0.01250000
4135, 0.63750000, 0.00000000, 0.01875000
4136, 0.63750000, 0.00000000, 0.02500000
4137, 0.63750000, 0.00000000, 0.03125000
4138, 0.63750000, 0.00000000, 0.03750000
4139, 0.63750000, 0.00000000, 0.04375000
4140, 0.63750000, 0.00000000, 0.05000000
4141, 0.63750000, 0.00625000, 0.00000000
4142, 0.63750000, 0.00625000, 0.00625000
4143, 0.63750000, 0.00625000, 0.01250000
4144, 0.63750000, 0.00625000, 0.01875000
4145, 0.63750000, 0.00625000, 0.02500000
4146, 0.63750000, 0.00625000, 0.03125000
4147, 0.63750000, 0.00625000, 0.03750000
4148, 0.63750000, 0.00625000, 0.04375000
4149, 0.63750000, 0.00625000, 0.05000000
4150, 0.63750000, 0.01250000, 0.00000000
4151, 0.63750000, 0.01250000, 0.00625000
4152, 0.63750000, 0.01250000, 0.01250000
4153, 0.63750000, 0.01250000, 0.01875000
4154, 0.63750000, 0.01250000, 0.02500000
4155, 0.63750000, 0.01250000, 0.03125000
4156, 0.63750000, 0.01250000, 0.03750000
4157, 0.63750000, 0.01250000, 0.04375000
4158, 0.63750000, 0.01250000, 0.05000000
4159, 0.63750000, 0.01875000, 0.00000000
4160, 0.63750000, 0.01875000, 0.00625000
4161, 0.63750000, 0.01875000, 0.01250000
4162, 0.63750000, 0.01875000, 0.01875000
4163, 0.63750000, 0.01875000, 0.02500000
4164, 0.63750000, 0.01875000, 0.03125000
4165, 0.63750000, 0.01875000, 0.03750000
4166, 0.63750000, 0.01875000, 0.04375000
4167, 0.63750000, 0.01875000, 0.05000000
4168, 0.63750000, 0.02500000, 0.00000000
4169, 0.63750000, 0.02500000, 0.00625000
4170, 0.63750000, 0.02500000, 0.01250000
4171, 0.63750000, 0.02500000, 0.01875000
4172, 0.63750000, 0.02500000, 0.02500000
4173, 0.63750000, 0.02500000, 0.03125000
4174, 0.63750000, 0.02500000, 0.03750000
4175, 0.63750000, 0.02500000, 0.04375000
4176, 0.63750000, 0.02500000, 0.05000000
4177, 0.63750000, 0.03125000, 0.00000000
4178, 0.63750000, 0.03125000, 0.00625000
4179, 0.63750000, 0.03125000, 0.01250000
4180, 0.63750000, 0.03125000, 0.01875000
4181, 0.63750000, 0.03125000, 0.02500000
4182, 0.63750000, 0.03125000, 0.03125000
4183, 0.63750000, 0.03125000, 0.03750000
4184, 0.63750000, 0.03125000, 0.04375000
4185, 0.63750000, 0.03125000, 0.05000000
4186, 0.63750000, 0.03750000, 0.00000000
4187, 0.63750000, 0.03750000, 0.00625000
4188, 0.63750000, 0.03750000, 0.01250000
4189, 0.63750000, 0.03750000, 0.01875000
4190, 0.63750000, 0.03750000, 0.02500000
4191, 0.63750000, 0.03750000, 0.03125000
4192, 0.63750000, 0.03750000, 0.03750000
4193, 0.63750000, 0.03750000, 0.04375000
4194, 0.63750000, 0.03750000, 0.05000000
4195, 0.63750000, 0.04375000, 0.00000000
4196, 0.63750000, 0.04375000, 0.00625000
4197, 0.63750000, 0.04375000, 0.01250000
4198, 0.63750000, 0.04375000, 0.01875000
4199, 0.63750000, 0.04375000, 0.02500000
4200, 0.63750000, 0.04375000, 0.03125000
4201, 0.63750000, 0.04375000, 0.03750000
4202, 0.63750000, 0.04375000, 0.04375000
4203, 0.63750000, 0.04375000, 0.05000000
4204, 0.63750000, 0.05000000, 0.00000000
4205, 0.63750000, 0.05000000, 0.00625000
4206, 0.63750000, 0.05000000, 0.01250000
4207, 0.63750000, 0.05000000, 0.01875000
4208, 0.63750000, 0.05000000, 0.02500000
4209, 0.63750000, 0.05000000, 0.03125000
4210, 0.63750000, 0.05000000, 0.03750000
4211, 0.63750000, 0.05000000, 0.04375000
4212, 0.63750000, 0.05000000, 0.05000000
4213, 0.65000000, 0.00000000, 0.00000000
4214, 0.65000000, 0.00000000, 0.00625000
4215, 0.65000000, 0.00000000, 0.01250000
4216, 0.65000000, 0.00000000, 0.01875000
4217, 0.65000000, 0.00000000, 0.02500000
4218, 0.65000000, 0.00000000, 0.03125000
4219, 0.65000000, 0.00000000, 0.03750000
4220, 0.65000000, 0.00000000, 0.04375000
4221, 0.65000000, 0.00000000, 0.05000000
4222, 0.65000000, 0.00625000, 0.00000000
4223, 0.65000000, 0.00625000, 0.00625000
4224, 0.65000000, 0.00625000, 0.01250000
4225, 0.65000000, 0.00625000, 0.01875000
4226, 0.65000000, 0.00625000, 0.02500000
4227, 0.65000000, 0.00625000, 0.03125000
4228, 0.65000000, 0.00625000, 0.03750000
4229, 0.65000000, 0.00625000, 0.04375000
4230, 0.65000000, 0.00625000, 0.05000000
4231, 0.65000000, 0.01250000, 0.00000000
4232, 0.65000000, 0.01250000, 0.00625000
4233, 0.65000000, 0.01250000, 0.01250000
4234, 0.65000000, 0.01250000, 0.01875000
4235, 0.65000000, 0.01250000, 0.02500000
4236, 0.65000000, 0.01250000, 0.03125000
4237, 0.65000000, 0.01250000, 0.03750000
4238, 0.65000000, 0.01250000, 0.04375000
4239, 0.65000000, 0.01250000, 0.05000000
4240, 0.65000000, 0.01875000, 0.00000000
4241, 0.65000000, 0.01875000, 0.00625000
4242, 0.65000000, 0.01875000, 0.01250000
4243, 0.65000000, 0.01875000, 0.01875000
4244, 0.65000000, 0.01875000, 0.02500000
4245, 0.65000000, 0.01875000, 0.03125000
4246, 0.65000000, 0.01875000, 0.03750000
4247, 0.65000000, 0.01875000, 0.04375000
4248, 0.65000000, 0.01875000, 0.05000000
4249, 0.65000000, 0.02500000, 0.00000000
4250, 0.65000000, 0.02500000, 0.00625000
4251, 0.65000000, 0.02500000, 0.01250000
4252, 0.65000000, 0.02500000, 0.01875000
4253, 0.65000000, 0.02500000, 0.02500000
4254, 0.65000000, 0.02500000, 0.03125000
4255, 0.65000000, 0.02500000, 0.03750000
4256, 0.65000000, 0.02500000, 0.04375000
4257, 0.65000000, 0.02500000, 0.05000000
4258, 0.65000000, 0.03125000, 0.00000000
4259, 0.65000000, 0.03125000, 0.00625000
4260, 0.65000000, 0.03125000, 0.01250000
4261, 0.65000000, 0.03125000, 0.01875000
4262, 0.65000000, 0.03125000, 0.02500000
4263, 0.65000000, 0.03125000, 0.03125000
4264, 0.65000000, 0.03125000, 0.03750000
4265, 0.65000000, 0.03125000, 0.04375000
4266, 0.65000000, 0.03125000, 0.05000000
4267, 0.65000000, 0.03750000, 0.00000000
4268, 0.65000000, 0.03750000, 0.00625000
4269, 0.65000000, 0.03750000, 0.01250000
4270, 0.65000000, 0.03750000, 0.01875000
4271, 0.65000000, 0.03750000, 0.02500000
4272, 0.65000000, 0.03750000, 0.03125000
4273, 0.65000000, 0.03750000, 0.03750000
4274, 0.65000000, 0.03750000, 0.04375000
4275, 0.65000000, 0.03750000, 0.05000000
4276, 0.65000000, 0.04375000, 0.00000000
4277, 0.65000000, 0.04375000, 0.00625000
4278, 0.65000000, 0.04375000, 0.01250000
4279, 0.65000000, 0.04375000, 0.01875000
4280, 0.65000000, 0.04375000, 0.02500000
4281, 0.65000000, 0.04375000, 0.03125000
4282, 0.65000000, 0.04375000, 0.03750000
4283, 0.65000000, 0.04375000, 0.04375000
4284, 0.65000000, 0.04375000, 0.05000000
4285, 0.65000000, 0.05000000, 0.00000000
4286, 0.65000000, 0.05000000, 0.00625000
4287, 0.65000000, 0.05000000, 0.01250000
4288, 0.65000000, 0.05000000, 0.01875000
4289, 0.65000000, 0.05000000, 0.02500000
4290, 0.65000000, 0.05000000, 0.03125000
4291, 0.65000000, 0.05000000, 0.03750000
4292, 0.65000000, 0.05000000, 0.04375000
4293, 0.65000000, 0.05000000, 0.05000000
4294, 0.66250000, 0.00000000, 0.00000000
4295, 0.66250000, 0.00000000, 0.00625000
4296, 0.66250000, 0.00000000, 0.01250000
4297, 0.66250000, 0.00000000, 0.01875000
4298, 0.66250000, 0.00000000, 0.02500000
4299, 0.66250000, 0.00000000, 0.03125000
4300, 0.66250000, 0.00000000, 0.03750000
4301, 0.66250000, 0.00000000, 0.04375000
4302, 0.66250000, 0.00000000, 0.05000000
4303, 0.66250000, 0.00625000, 0.00000000
4304, 0.66250000, 0.00625000, 0.00625000
4305, 0.66250000, 0.00625000, 0.01250000
4306, 0.66250000, 0.00625000, 0.01875000
4307, 0.66250000, 0.00625000, 0.02500000
4308, 0.66250000, 0.00625000, 0.03125000
4309, 0.66250000, 0.00625000, 0.03750000
4310, 0.66250000, 0.00625000, 0.04375000
4311, 0.66250000, 0.00625000, 0.05000000
4312, 0.66250000, 0.01250000, 0.00000000
4313, 0.66250000, 0.01250000, 0.00625000
4314, 0.66250000, 0.01250000, 0.01250000
4315, 0.66250000, 0.01250000, 0.01875000
4316, 0.66250000, 0.01250000, 0.02500000
4317, 0.66250000, 0.01250000, 0.03125000
4318, 0.66250000, 0.01250000, 0.03750000
4319, 0.66250000, 0.01250000, 0.04375000
4320, 0.66250000, 0.01250000, 0.05000000
4321, 0.66250000, 0.01875000, 0.00000000
4322, 0.66250000, 0.01875000, 0.00625000
4323, 0.66250000, 0.01875000, 0.01250000
4324, 0.66250000, 0.01875000, 0.01875000
4325, 0.66250000, 0.01875000, 0.02500000
4326, 0.66250000, 0.01875000, 0.03125000
4327, 0.66250000, 0.01875000, 0.03750000
4328, 0.66250000, 0.01875000, 0.04375000
4329, 0.66250000, 0.01875000, 0.05000000
4330, 0.66250000, 0.02500000, 0.00000000
4331, 0.66250000, 0.02500000, 0.00625000
4332, 0.66250000, 0.02500000, 0.01250000
4333, 0.66250000, 0.02500000, 0.01875000
4334, 0.66250000, 0.02500000, 0.02500000
4335, 0.66250000, 0.02500000, 0.03125000
4336, 0.66250000, 0.02500000, 0.03750000
4337, 0.66250000, 0.02500000, 0.04375000
4338, 0.66250000, 0.02500000, 0.05000000
4339, 0.66250000, 0.03125000, 0.00000000
4340, 0.66250000, 0.03125000, 0.00625000
4341, 0.66250000, 0.03125000, 0.01250000
4342, 0.66250000, 0.03125000, 0.01875000
4343, 0.66250000, 0.03125000, 0.02500000
4344, 0.66250000, 0.03125000, 0.03125000
4345, 0.66250000, 0.03125000, 0.03750000
4346, 0.66250000, 0.03125000, 0.04375000
4347, 0.66250000, 0.03125000, 0.05000000
4348, 0.66250000, 0.03750000, 0.00000000
4349, 0.66250000, 0.03750000, 0.00625000
4350, 0.66250000, 0.03750000, 0.01250000
4351, 0.66250000, 0.03750000, 0.01875000
4352, 0.66250000, 0.03750000, 0.02500000
4353, 0.66250000, 0.03750000, 0.03125000
4354, 0.66250000, 0.03750000, 0.03750000
4355, 0.66250000, 0.03750000, 0.04375000
4356, 0.66250000, 0.03750000, 0.05000000
4357, 0.66250000, 0.04375000, 0.00000000
4358, 0.66250000, 0.04375000, 0.00625000
4359, 0.66250000, 0.04375000, 0.01250000
4360, 0.66250000, 0.04375000, 0.01875000
4361, 0.66250000, 0.04375000, 0.02500000
4362, 0.66250000, 0.04375000, 0.03125000
4363, 0.66250000, 0.04375000, 0.03750000
4364, 0.66250000, 0.04375000, 0.04375000
4365, 0.66250000, 0.04375000, 0.05000000
4366, 0.66250000, 0.05000000, 0.00000000
4367, 0.66250000, 0.05000000, 0.00625000
4368, 0.66250000, 0.05000000, 0.01250000
4369, 0.66250000, 0.05000000, 0.01875000
4370, 0.66250000, 0.05000000, 0.02500000
4371, 0.66250000, 0.05000000, 0.03125000
4372, 0.66250000, 0.05000000, 0.03750000
4373, 0.66250000, 0.05000000, 0.04375000
4374, 0.66250000, 0.05000000, 0.05000000
4375, 0.67500000, 0.00000000, 0.00000000
4376, 0.67500000, 0.00000000, 0.00625000
4377, 0.67500000, 0.00000000, 0.01250000
4378, 0.67500000, 0.00000000, 0.01875000
4379, 0.67500000, 0.00000000, 0.02500000
4380, 0.67500000, 0.00000000, 0.03125000
4381, 0.67500000, 0.00000000, 0.03750000
4382, 0.67500000, 0.00000000, 0.04375000
4383, 0.67500000, 0.00000000, 0.05000000
4384, 0.67500000, 0.00625000, 0.00000000
4385, 0.67500000, 0.00625000, 0.00625000
4386, 0.67500000, 0.00625000, 0.01250000
4387, 0.67500000, 0.00625000, 0.01875000
4388, 0.67500000, 0.00625000, 0.02500000
4389, 0.67500000, 0.00625000, 0.03125000
4390, 0.67500000, 0.00625000, 0.03750000
4391, 0.67500000, 0.00625000, 0.04375000
4392, 0.67500000, 0.00625000, 0.05000000
4393, 0.67500000, 0.01250000, 0.00000000
4394, 0.67500000, 0.01250000, 0.00625000
4395, 0.67500000, 0.01250000, 0.01250000
4396, 0.67500000, 0.01250000, 0.01875000
4397, 0.67500000, 0.01250000, 0.02500000
4398, 0.67500000, 0.01250000, 0.03125000
4399, 0.67500000, 0.01250000, 0.03750000
4400, 0.67500000, 0.01250000, 0.04375000
4401, 0.67500000, 0.01250000, 0.05000000
4402, 0.67500000, 0.01875000, 0.00000000
4403, 0.67500000, 0.01875000, 0.00625000
4404, 0.67500000, 0.01875000, 0.01250000
4405, 0.67500000, 0.01875000, 0.01875000
4406, 0.67500000, 0.01875000, 0.02500000
4407, 0.67500000, 0.01875000, 0.03125000
4408, 0.67500000, 0.01875000, 0.03750000
4409, 0.67500000, 0.01875000, 0.04375000
4410, 0.67500000, 0.01875000, 0.05000000
4411, 0.67500000, 0.02500000, 0.00000000
4412, 0.67500000, 0.02500000, 0.00625000
4413, 0.67500000, 0.02500000, 0.01250000
4414, 0.67500000, 0.02500000, 0.01875000
4415, 0.67500000, 0.02500000, 0.02500000
4416, 0.67500000, 0.02500000, 0.03125000
4417, 0.67500000, 0.02500000, 0.03750000
4418, 0.67500000, 0.02500000, 0.04375000
4419, 0.67500000, 0.02500000, 0.05000000
4420, 0.67500000, 0.03125000, 0.00000000
4421, 0.67500000, 0.03125000, 0.00625000
4422, 0.67500000, 0.03125000, 0.01250000
4423, 0.67500000, 0.03125000, 0.01875000
4424, 0.67500000, 0.03125000, 0.02500000
4425, 0.67500000, 0.03125000, 0.03125000
4426, 0.67500000, 0.03125000, 0.03750000
4427, 0.67500000, 0.03125000, 0.04375000
4428, 0.67500000, 0.03125000, 0.05000000
4429, 0.67500000, 0.03750000, 0.00000000
4430, 0.67500000, 0.03750000, 0.00625000
4431, 0.67500000, 0.03750000, 0.01250000
4432, 0.67500000, 0.03750000, 0.01875000
4433, 0.67500000, 0.03750000, 0.02500000
4434, 0.67500000, 0.03750000, 0.03125000
4435, 0.67500000, 0.03750000, 0.03750000
4436, 0.67500000, 0.03750000, 0.04375000
4437, 0.67500000, 0.03750000, 0.05000000
4438, 0.67500000, 0.04375000, 0.00000000
4439, 0.67500000, 0.04375000, 0.00625000
4440, 0.67500000, 0.04375000, 0.01250000
4441, 0.67500000, 0.04375000, 0.01875000
4442, 0.67500000, 0.04375000, 0.02500000
4443, 0.67500000, 0.04375000, 0.03125000
4444, 0.67500000, 0.04375000, 0.03750000
4445, 0.67500000, 0.04375000, 0.04375000
4446, 0.67500000, 0.04375000, 0.05000000
4447, 0.67500000, 0.05000000, 0.00000000
4448, 0.67500000, 0.05000000, 0.00625000
4449, 0.67500000, 0.05000000, 0.01250000
4450, 0.67500000, 0.05000000, 0.01875000
4451, 0.67500000, 0.05000000, 0.02500000
4452, 0.67500000, 0.05000000, 0.03125000
4453, 0.67500000, 0.05000000, 0.03750000
4454, 0.67500000, 0.05000000, 0.04375000
4455, 0.67500000, 0.05000000, 0.05000000
4456, 0.68750000, 0.00000000, 0.00000000
4457, 0.68750000, 0.00000000, 0.00625000
4458, 0.68750000, 0.00000000, 0.01250000
4459, 0.68750000, 0.00000000, 0.01875000
4460, 0.68750000, 0.00000000, 0.02500000
4461, 0.68750000, 0.00000000, 0.03125000
4462, 0.68750000, 0.00000000, 0.03750000
4463, 0.68750000, 0.00000000, 0.04375000
4464, 0.68750000, 0.00000000, 0.05000000
4465, 0.68750000, 0.00625000, 0.00000000
4466, 0.68750000, 0.00625000, 0.00625000
4467, 0.68750000, 0.00625000, 0.01250000
4468, 0.68750000, 0.00625000, 0.01875000
4469, 0.68750000, 0.00625000, 0.02500000
4470, 0.68750000, 0.00625000, 0.03125000
4471, 0.68750000, 0.00625000, 0.03750000
4472, 0.68750000, 0.00625000, 0.04375000
4473, 0.68750000, 0.00625000, 0.05000000
4474, 0.68750000, 0.01250000, 0.00000000
4475, 0.68750000, 0.01250000, 0.00625000
4476, 0.68750000, 0.01250000, 0.01250000
4477, 0.68750000, 0.01250000, 0.01875000
4478, 0.68750000, 0.01250000, 0.02500000
4479, 0.68750000, 0.01250000, 0.03125000
4480, 0.68750000, 0.01250000, 0.03750000
4481, 0.68750000, 0.01250000, 0.04375000
4482, 0.68750000, 0.01250000, 0.05000000
4483, 0.68750000, 0.01875000, 0.00000000
4484, 0.68750000, 0.01875000, 0.00625000
4485, 0.68750000, 0.01875000, 0.01250000
4486, 0.68750000, 0.01875000, 0.01875000
4487, 0.68750000, 0.01875000, 0.02500000
4488, 0.68750000, 0.01875000, 0.03125000
4489, 0.68750000, 0.01875000, 0.03750000
4490, 0.68750000, 0.01875000, 0.04375000
4491, 0.68750000, 0.01875000, 0.05000000
4492, 0.68750000, 0.02500000, 0.00000000
4493, 0.68750000, 0.02500000, 0.00625000
4494, 0.68750000, 0.02500000, 0.01250000
4495, 0.68750000, 0.02500000, 0.01875000
4496, 0.68750000, 0.02500000, 0.02500000
4497, 0.68750000, 0.02500000, 0.03125000
4498, 0.68750000, 0.02500000, 0.03750000
4499, 0.68750000, 0.02500000, 0.04375000
4500, 0.68750000, 0.02500000, 0.05000000
4501, 0.68750000, 0.03125000, 0.00000000
4502, 0.68750000, 0.03125000, 0.00625000
4503, 0.68750000, 0.03125000, 0.01250000
4504, 0.68750000, 0.03125000, 0.01875000
4505, 0.68750000, 0.03125000, 0.02500000
4506, 0.68750000, 0.03125000, 0.03125000
4507, 0.68750000, 0.03125000, 0.03750000
4508, 0.68750000, 0.03125000, 0.04375000
4509, 0.68750000, 0.03125000, 0.05000000
4510, 0.68750000, 0.03750000, 0.00000000
4511, 0.68750000, 0.03750000, 0.00625000
4512, 0.68750000, 0.03750000, 0.01250000
4513, 0.68750000, 0.03750000, 0.01875000
4514, 0.68750000, 0.03750000, 0.02500000
4515, 0.68750000, 0.03750000, 0.03125000
4516, 0.68750000, 0.03750000, 0.03750000
4517, 0.68750000, 0.03750000, 0.04375000
4518, 0.68750000, 0.03750000, 0.05000000
4519, 0.68750000, 0.04375000, 0.00000000
4520, 0.68750000, 0.04375000, 0.00625000
4521, 0.68750000, 0.04375000, 0.01250000
4522, 0.68750000, 0.04375000, 0.01875000
4523, 0.68750000, 0.04375000, 0.02500000
4524, 0.68750000, 0.04375000, 0.03125000
4525, 0.68750000, 0.04375000, 0.03750000
4526, 0.68750000, 0.04375000, 0.04375000
4527, 0.68750000, 0.04375000, 0.05000000
4528, 0.68750000, 0.05000000, 0.00000000
4529, 0.68750000, 0.05000000, 0.00625000
4530, 0.68750000, 0.05000000, 0.01250000
4531, 0.68750000, 0.05000000, 0.01875000
4532, 0.68750000, 0.05000000, 0.02500000
4533, 0.68750000, 0.05000000, 0.03125000
4534, 0.68750000, 0.05000000, 0.03750000
4535, 0.68750000, 0.05000000, 0.04375000
4536, 0.68750000, 0.05000000, 0.05000000
4537, 0.70000000, 0.00000000, 0.00000000
4538, 0.70000000, 0.00000000, 0.00625000
4539, 0.70000000, 0.00000000, 0.01250000
4540, 0.70000000, 0.00000000, 0.01875000
4541, 0.70000000, 0.00000000, 0.02500000
4542, 0.70000000, 0.00000000, 0.03125000
4543, 0.70000000, 0.00000000, 0.03750000
4544, 0.70000000, 0.00000000, 0.04375000
4545, 0.70000000, 0.00000000, 0.05000000
4546, 0.70000000, 0.00625000, 0.00000000
4547, 0.70000000, 0.00625000, 0.00625000
4548, 0.70000000, 0.00625000, 0.01250000
4549, 0.70000000, 0.00625000, 0.01875000
4550, 0.70000000, 0.00625000, 0.02500000
4551, 0.70000000, 0.00625000, 0.03125000
4552, 0.70000000, 0.00625000, 0.03750000
4553, 0.70000000, 0.00625000, 0.04375000
4554, 0.70000000, 0.00625000, 0.05000000
4555, 0.70000000, 0.01250000, 0.00000000
4556, 0.70000000, 0.01250000, 0.00625000
4557, 0.70000000, 0.01250000, 0.01250000
4558, 0.70000000, 0.01250000, 0.01875000
4559, 0.70000000, 0.01250000, 0.02500000
4560, 0.70000000, 0.01250000, 0.03125000
4561, 0.70000000, 0.01250000, 0.03750000
4562, 0.70000000, 0.01250000, 0.04375000
4563, 0.70000000, 0.01250000, 0.05000000
4564, 0.70000000, 0.01875000, 0.00000000
4565, 0.70000000, 0.01875000, 0.00625000
4566, 0.70000000, 0.01875000, 0.01250000
4567, 0.70000000, 0.01875000, 0.01875000
4568, 0.70000000, 0.01875000, 0.02500000
4569, 0.70000000, 0.01875000, 0.03125000
4570, 0.70000000, 0.01875000, 0.03750000
4571, 0.70000000, 0.01875000, 0.04375000
4572, 0.70000000, 0.01875000, 0.05000000
4573, 0.70000000, 0.02500000, 0.00000000
4574, 0.70000000, 0.02500000, 0.00625000
4575, 0.70000000, 0.02500000, 0.01250000
4576, 0.70000000, 0.02500000, 0.01875000
4577, 0.70000000, 0.02500000, 0.02500000
4578, 0.70000000, 0.02500000, 0.03125000
4579, 0.70000000, 0.02500000, 0.03750000
4580, 0.70000000, 0.02500000, 0.04375000
4581, 0.70000000, 0.02500000, 0.05000000
4582, 0.70000000, 0.03125000, 0.00000000
4583, 0.70000000, 0.03125000, 0.00625000
4584, 0.70000000, 0.03125000, 0.01250000
4585, 0.70000000, 0.03125000, 0.01875000
4586, 0.70000000, 0.03125000, 0.02500000
4587, 0.70000000, 0.03125000, 0.03125000
4588, 0.70000000, 0.03125000, 0.03750000
4589, 0.70000000, 0.03125000, 0.04375000
4590, 0.70000000, 0.03125000, 0.05000000
4591, 0.70000000, 0.03750000, 0.00000000
4592, 0.70000000, 0.03750000, 0.00625000
4593, 0.70000000, 0.03750000, 0.01250000
4594, 0.70000000, 0.03750000, 0.01875000
4595, 0.70000000, 0.03750000, 0.02500000
4596, 0.70000000, 0.03750000, 0.03125000
4597, 0.70000000, 0.03750000, 0.03750000
4598, 0.70000000, 0.03750000, 0.04375000
4599, 0.70000000, 0.03750000, 0.05000000
4600, 0.70000000, 0.04375000, 0.00000000
4601, 0.70000000, 0.04375000, 0.00625000
4602, 0.70000000, 0.04375000, 0.01250000
4603, 0.70000000, 0.04375000, 0.01875000
4604, 0.70000000, 0.04375000, 0.02500000
4605, 0.70000000, 0.04375000, 0.03125000
4606, 0.70000000, 0.04375000, 0.03750000
4607, 0.70000000, 0.04375000, 0.04375000
4608, 0.70000000, 0.04375000, 0.05000000
4609, 0.70000000, 0.05000000, 0.00000000
4610, 0.70000000, 0.05000000, 0.00625000
4611, 0.70000000, 0.05000000, 0.01250000
4612, 0.70000000, 0.05000000, 0.01875000
4613, 0.70000000, 0.05000000, 0.02500000
4614, 0.70000000, 0.05000000, 0.03125000
4615, 0.70000000, 0.05000000, 0.03750000
4616, 0.70000000, 0.05000000, 0.04375000
4617, 0.70000000, 0.05000000, 0.05000000
4618, 0.71250000, 0.00000000, 0.00000000
4619, 0.71250000, 0.00000000, 0.00625000
4620, 0.71250000, 0.00000000, 0.01250000
4621, 0.71250000, 0.00000000, 0.01875000
4622, 0.71250000, 0.00000000, 0.02500000
4623, 0.71250000, 0.00000000, 0.03125000
4624, 0.71250000, 0.00000000, 0.03750000
4625, 0.71250000, 0.00000000, 0.04375000
4626, 0.71250000, 0.00000000, 0.05000000
4627, 0.71250000, 0.00625000, 0.00000000
4628, 0.71250000, 0.00625000, 0.00625000
4629, 0.71250000, 0.00625000, 0.01250000
4630, 0.71250000, 0.00625000, 0.01875000
4631, 0.71250000, 0.00625000, 0.02500000
4632, 0.71250000, 0.00625000, 0.03125000
4633, 0.71250000, 0.00625000, 0.03750000
4634, 0.71250000, 0.00625000, 0.04375000
4635, 0.71250000, 0.00625000, 0.05000000
4636, 0.71250000, 0.01250000, 0.00000000
4637, 0.71250000, 0.01250000, 0.00625000
4638, 0.71250000, 0.01250000, 0.01250000
4639, 0.71250000, 0.01250000, 0.01875000
4640, 0.71250000, 0.01250000, 0.02500000
4641, 0.71250000, 0.01250000, 0.03125000
4642, 0.71250000, 0.01250000, 0.03750000
4643, 0.71250000, 0.01250000, 0.04375000
4644, 0.71250000, 0.01250000, 0.05000000
4645, 0.71250000, 0.01875000, 0.00000000
4646, 0.71250000, 0.01875000, 0.00625000
4647, 0.71250000, 0.01875000, 0.01250000
4648, 0.71250000, 0.01875000, 0.01875000
4649, 0.71250000, 0.01875000, 0.02500000
4650, 0.71250000, 0.01875000, 0.03125000
4651, 0.71250000, 0.01875000, 0.03750000
4652, 0.71250000, 0.01875000, 0.04375000
4653, 0.71250000, 0.01875000, 0.05000000
4654, 0.71250000, 0.02500000, 0.00000000
4655, 0.71250000, 0.02500000, 0.00625000
4656, 0.71250000, 0.02500000, 0.01250000
4657, 0.71250000, 0.02500000, 0.01875000
4658, 0.71250000, 0.02500000, 0.02500000
4659, 0.71250000, 0.02500000, 0.03125000
4660, 0.71250000, 0.02500000, 0.03750000
4661, 0.71250000, 0.02500000, 0.04375000
4662, 0.71250000, 0.02500000, 0.05000000
4663, 0.71250000, 0.03125000, 0.00000000
4664, 0.71250000, 0.03125000, 0.00625000
4665, 0.71250000, 0.03125000, 0.01250000
4666, 0.71250000, 0.03125000, 0.01875000
4667, 0.71250000, 0.03125000, 0.02500000
4668, 0.71250000, 0.03125000, 0.03125000
4669, 0.71250000, 0.03125000, 0.03750000
4670, 0.71250000, 0.03125000, 0.04375000
4671, 0.71250000, 0.03125000, 0.05000000
4672, 0.71250000, 0.03750000, 0.00000000
4673, 0.71250000, 0.03750000, 0.00625000
4674, 0.71250000, 0.03750000, 0.01250000
4675, 0.71250000, 0.03750000, 0.01875000
4676, 0.71250000, 0.03750000, 0.02500000
4677, 0.71250000, 0.03750000, 0.03125000
4678, 0.71250000, 0.03750000, 0.03750000
4679, 0.71250000, 0.03750000, 0.04375000
4680, 0.71250000, 0.03750000, 0.05000000
4681, 0.71250000, 0.04375000, 0.00000000
4682, 0.71250000, 0.04375000, 0.00625000
4683, 0.71250000, 0.04375000, 0.01250000
4684, 0.71250000, 0.04375000, 0.01875000
4685, 0.71250000, 0.04375000, 0.02500000
4686, 0.71250000, 0.04375000, 0.03125000
4687, 0.71250000, 0.04375000, 0.03750000
4688, 0.71250000, 0.04375000, 0.04375000
4689, 0.71250000, 0.04375000, 0.05000000
4690, 0.71250000, 0.05000000, 0.00000000
4691, 0.71250000, 0.05000000, 0.00625000
4692, 0.71250000, 0.05000000, 0.01250000
4693, 0.71250000, 0.05000000, 0.01875000
4694, 0.71250000, 0.05000000, 0.02500000
4695, 0.71250000, 0.05000000, 0.03125000
4696, 0.71250000, 0.05000000, 0.03750000
4697, 0.71250000, 0.05000000, 0.04375000
4698, 0.71250000, 0.05000000, 0.05000000
4699, 0.72500000, 0.00000000, 0.00000000
4700, 0.72500000, 0.00000000, 0.00625000
4701, 0.72500000, 0.00000000, 0.01250000
4702, 0.72500000, 0.00000000, 0.01875000
4703, 0.72500000, 0.00000000, 0.02500000
4704, 0.72500000, 0.00000000, 0.03125000
4705, 0.72500000, 0.00000000, 0.03750000
4706, 0.72500000, 0.00000000, 0.04375000
4707, 0.72500000, 0.00000000, 0.05000000
4708, 0.72500000, 0.00625000, 0.00000000
4709, 0.72500000, 0.00625000, 0.00625000
4710, 0.72500000, 0.00625000, 0.01250000
4711, 0.72500000, 0.00625000, 0.01875000
4712, 0.72500000, 0.00625000, 0.02500000
4713, 0.72500000, 0.00625000, 0.03125000
4714, 0.72500000, 0.00625000, 0.03750000
4715, 0.72500000, 0.00625000, 0.04375000
4716, 0.72500000, 0.00625000, 0.05000000
4717, 0.72500000, 0.01250000, 0.00000000
4718, 0.72500000, 0.01250000, 0.00625000
4719, 0.72500000, 0.01250000, 0.01250000
4720, 0.72500000, 0.01250000, 0.01875000
4721, 0.72500000, 0.01250000, 0.02500000
4722, 0.72500000, 0.01250000, 0.03125000
4723, 0.72500000, 0.01250000, 0.03750000
4724, 0.72500000, 0.01250000, 0.04375000
4725, 0.72500000, 0.01250000, 0.05000000
4726, 0.72500000, 0.01875000, 0.00000000
4727, 0.72500000, 0.01875000, 0.00625000
4728, 0.72500000, 0.01875000, 0.01250000
4729, 0.72500000, 0.01875000, 0.01875000
4730, 0.72500000, 0.01875000, 0.02500000
4731, 0.72500000, 0.01875000, 0.03125000
4732, 0.72500000, 0.01875000, 0.03750000
4733, 0.72500000, 0.01875000, 0.04375000
4734, 0.72500000, 0.01875000, 0.05000000
4735, 0.72500000, 0.02500000, 0.00000000
4736, 0.72500000, 0.02500000, 0.00625000
4737, 0.72500000, 0.02500000, 0.01250000
4738, 0.72500000, 0.02500000, 0.01875000
4739, 0.72500000, 0.02500000, 0.02500000
4740, 0.72500000, 0.02500000, 0.03125000
4741, 0.72500000, 0.02500000, 0.03750000
4742, 0.72500000, 0.02500000, 0.04375000
4743, 0.72500000, 0.02500000, 0.05000000
4744, 0.72500000, 0.03125000, 0.00000000
4745, 0.72500000, 0.03125000, 0.00625000
4746, 0.72500000, 0.03125000, 0.01250000
4747, 0.72500000, 0.03125000, 0.01875000
4748, 0.72500000, 0.03125000, 0.02500000
4749, 0.72500000, 0.03125000, 0.03125000
4750, 0.72500000, 0.03125000, 0.03750000
4751, 0.72500000, 0.03125000, 0.04375000
4752, 0.72500000, 0.03125000, 0.05000000
4753, 0.72500000, 0.03750000, 0.00000000
4754, 0.72500000, 0.03750000, 0.00625000
4755, 0.72500000, 0.03750000, 0.01250000
4756, 0.72500000, 0.03750000, 0.01875000
4757, 0.72500000, 0.03750000, 0.02500000
4758, 0.72500000, 0.03750000, 0.03125000
4759, 0.72500000, 0.03750000, 0.03750000
4760, 0.72500000, 0.03750000, 0.04375000
4761, 0.72500000, 0.03750000, 0.05000000
4762, 0.72500000, 0.04375000, 0.00000000
4763, 0.72500000, 0.04375000, 0.00625000
4764, 0.72500000, 0.04375000, 0.01250000
4765, 0.72500000, 0.04375000, 0.01875000
4766, 0.72500000, 0.04375000, 0.02500000
4767, 0.72500000, 0.04375000, 0.03125000
4768, 0.72500000, 0.04375000, 0.03750000
4769, 0.72500000, 0.04375000, 0.04375000
4770, 0.72500000, 0.04375000, 0.05000000
4771, 0.72500000, 0.05000000, 0.00000000
4772, 0.72500000, 0.05000000, 0.00625000
4773, 0.72500000, 0.05000000, 0.01250000
4774, 0.72500000, 0.05000000, 0.01875000
4775, 0.72500000, 0.05000000, 0.02500000
4776, 0.72500000, 0.05000000, 0.03125000
4777, 0.72500000, 0.05000000, 0.03750000
4778, 0.72500000, 0.05000000, 0.04375000
4779, 0.72500000, 0.05000000, 0.05000000
4780, 0.73750000, 0.00000000, 0.00000000
4781, 0.73750000, 0.00000000, 0.00625000
4782, 0.73750000, 0.00000000, 0.01250000
4783, 0.73750000, 0.00000000, 0.01875000
4784, 0.73750000, 0.00000000, 0.02500000
4785, 0.73750000, 0.00000000, 0.03125000
4786, 0.73750000, 0.00000000, 0.03750000
4787, 0.73750000, 0.00000000, 0.04375000
4788, 0.73750000, 0.00000000, 0.05000000
4789, 0.73750000, 0.00625000, 0.00000000
4790, 0.73750000, 0.00625000, 0.00625000
4791, 0.73750000, 0.00625000, 0.01250000
4792, 0.73750000, 0.00625000, 0.01875000
4793, 0.73750000, 0.00625000, 0.02500000
4794, 0.73750000, 0.00625000, 0.03125000
4795, 0.73750000, 0.00625000, 0.03750000
4796, 0.73750000, 0.00625000, 0.04375000
4797, 0.73750000, 0.00625000, 0.05000000
4798, 0.73750000, 0.01250000, 0.00000000
4799, 0.73750000, 0.01250000, 0.00625000
4800, 0.73750000, 0.01250000, 0.01250000
4801, 0.73750000, 0.01250000, 0.01875000
4802, 0.73750000, 0.01250000, 0.02500000
4803, 0.73750000, 0.01250000, 0.03125000
4804, 0.73750000, 0.01250000, 0.03750000
4805, 0.73750000, 0.01250000, 0.04375000
4806, 0.73750000, 0.01250000, 0.05000000
4807, 0.73750000, 0.01875000, 0.00000000
4808, 0.73750000, 0.01875000, 0.00625000
4809, 0.73750000, 0.01875000, 0.01250000
4810, 0.73750000, 0.01875000, 0.01875000
4811, 0.73750000, 0.01875000, 0.02500000
4812, 0.73750000, 0.01875000, 0.03125000
4813, 0.73750000, 0.01875000, 0.03750000
4814, 0.73750000, 0.01875000, 0.04375000
4815, 0.73750000, 0.01875000, 0.05000000
4816, 0.73750000, 0.02500000, 0.00000000
4817, 0.73750000, 0.02500000, 0.00625000
4818, 0.73750000, 0.02500000, 0.01250000
4819, 0.73750000, 0.02500000, 0.01875000
4820, 0.73750000, 0.02500000, 0.02500000
4821, 0.73750000, 0.02500000, 0.03125000
4822, 0.73750000, 0.02500000, 0.03750000
4823, 0.73750000, 0.02500000, 0.04375000
4824, 0.73750000, 0.02500000, 0.05000000
4825, 0.73750000, 0.03125000, 0.00000000
4826, 0.73750000, 0.03125000, 0.00625000
4827, 0.73750000, 0.03125000, 0.01250000
4828, 0.73750000, 0.03125000, 0.01875000
4829, 0.73750000, 0.03125000, 0.02500000
4830, 0.73750000, 0.03125000, 0.03125000
4831, 0.73750000, 0.03125000, 0.03750000
4832, 0.73750000, 0.03125000, 0.04375000
4833, 0.73750000, 0.03125000, 0.05000000
4834, 0.73750000, 0.03750000, 0.00000000
4835, 0.73750000, 0.03750000, 0.00625000
4836, 0.73750000, 0.03750000, 0.01250000
4837, 0.73750000, 0.03750000, 0.01875000
4838, 0.73750000, 0.03750000, 0.02500000
4839, 0.73750000, 0.03750000, 0.03125000
4840, 0.73750000, 0.03750000, 0.03750000
4841, 0.73750000, 0.03750000, 0.04375000
4842, 0.73750000, 0.03750000, 0.05000000
4843, 0.73750000, 0.04375000, 0.00000000
4844, 0.73750000, 0.04375000, 0.00625000
4845, 0.73750000, 0.04375000, 0.01250000
4846, 0.73750000, 0.04375000, 0.01875000
4847, 0.73750000, 0.04375000, 0.02500000
4848, 0.73750000, 0.04375000, 0.03125000
4849, 0.73750000, 0.04375000, 0.03750000
4850, 0.73750000, 0.04375000, 0.04375000
4851, 0.73750000, 0.04375000, 0.05000000
4852, 0.73750000, 0.05000000, 0.00000000
4853, 0.73750000, 0.05000000, 0.00625000
4854, 0.73750000, 0.05000000, 0.01250000
4855, 0.73750000, 0.05000000, 0.01875000
4856, 0.73750000, 0.05000000, 0.02500000
4857, 0.73750000, 0.05000000, 0.03125000
4858, 0.73750000, 0.05000000, 0.03750000
4859, 0.73750000, 0.05000000, 0.04375000
4860, 0.73750000, 0.05000000, 0.05000000
4861, 0.75000000, 0.00000000, 0.00000000
4862, 0.75000000, 0.00000000, 0.00625000
4863, 0.75000000, 0.00000000, 0.01250000
4864, 0.75000000, 0.00000000, 0.01875000
4865, 0.75000000, 0.00000000, 0.02500000
4866, 0.75000000, 0.00000000, 0.03125000
4867, 0.75000000, 0.00000000, 0.03750000
4868, 0.75000000, 0.00000000, 0.04375000
4869, 0.75000000, 0.00000000, 0.05000000
4870, 0.75000000, 0.00625000, 0.00000000
4871, 0.75000000, 0.00625000, 0.00625000
4872, 0.75000000, 0.00625000, 0.01250000
4873, 0.75000000, 0.00625000, 0.01875000
4874, 0.75000000, 0.00625000, 0.02500000
4875, 0.75000000, 0.00625000, 0.03125000
4876, 0.75000000, 0.00625000, 0.03750000
4877, 0.75000000, 0.00625000, 0.04375000
4878, 0.75000000, 0.00625000, 0.05000000
4879, 0.75000000, 0.01250000, 0.00000000
4880, 0.75000000, 0.01250000, 0.00625000
4881, 0.75000000, 0.01250000, 0.01250000
4882, 0.75000000, 0.01250000, 0.01875000
4883, 0.75000000, 0.01250000, 0.02500000
4884, 0.75000000, 0.01250000, 0.03125000
4885, 0.75000000, 0.01250000, 0.03750000
4886, 0.75000000, 0.01250000, 0.04375000
4887, 0.75000000, 0.01250000, 0.05000000
4888, 0.75000000, 0.01875000, 0.00000000
4889, 0.75000000, 0.01875000, 0.00625000
4890, 0.75000000, 0.01875000, 0.01250000
4891, 0.75000000, 0.01875000, 0.01875000
4892, 0.75000000, 0.01875000, 0.02500000
4893, 0.75000000, 0.01875000, 0.03125000
4894, 0.75000000, 0.01875000, 0.03750000
4895, 0.75000000, 0.01875000, 0.04375000
4896, 0.75000000, 0.01875000, 0.05000000
4897, 0.75000000, 0.02500000, 0.00000000
4898, 0.75000000, 0.02500000, 0.00625000
4899, 0.75000000, 0.02500000, 0.01250000
4900, 0.75000000, 0.02500000, 0.01875000
4901, 0.75000000, 0.02500000, 0.02500000
4902, 0.75000000, 0.02500000, 0.03125000
4903, 0.75000000, 0.02500000, 0.03750000
4904, 0.75000000, 0.02500000, 0.04375000
4905, 0.75000000, 0.02500000, 0.05000000
4906, 0.75000000, 0.03125000, 0.00000000
4907, 0.75000000, 0.03125000, 0.00625000
4908, 0.75000000, 0.03125000, 0.01250000
4909, 0.75000000, 0.03125000, 0.01875000
4910, 0.75000000, 0.03125000, 0.02500000
4911, 0.75000000, 0.03125000, 0.03125000
4912, 0.75000000, 0.03125000, 0.03750000
4913, 0.75000000, 0.03125000, 0.04375000
4914, 0.75000000, 0.03125000, 0.05000000
4915, 0.75000000, 0.03750000, 0.00000000
4916, 0.75000000, 0.03750000, 0.00625000
4917, 0.75000000, 0.03750000, 0.01250000
4918, 0.75000000, 0.03750000, 0.01875000
4919, 0.75000000, 0.03750000, 0.02500000
4920, 0.75000000, 0.03750000, 0.03125000
4921, 0.75000000, 0.03750000, 0.03750000
4922, 0.75000000, 0.03750000, 0.04375000
4923, 0.75000000, 0.03750000, 0.05000000
4924, 0.75000000, 0.04375000, 0.00000000
4925, 0.75000000, 0.04375000, 0.00625000
4926, 0.75000000, 0.04375000, 0.01250000
4927, 0.75000000, 0.04375000, 0.01875000
4928, 0.75000000, 0.04375000, 0.02500000
4929, 0.75000000, 0.04375000, 0.03125000
4930, 0.75000000, 0.04375000, 0.03750000
4931, 0.75000000, 0.04375000, 0.04375000
4932, 0.75000000, 0.04375000, 0.05000000
4933, 0.75000000, 0.05000000, 0.00000000
4934, 0.75000000, 0.05000000, 0.00625000
4935, 0.75000000, 0.05000000, 0.01250000
4936, 0.75000000, 0.05000000, 0.01875000
4937, 0.75000000, 0.05000000, 0.02500000
4938, 0.75000000, 0.05000000, 0.03125000
4939, 0.75000000, 0.05000000, 0.03750000
4940, 0.75000000, 0.05000000, 0.04375000
4941, 0.75000000, 0.05000000, 0.05000000
4942, 0.76250000, 0.00000000, 0.00000000
4943, 0.76250000, 0.00000000, 0.00625000
4944, 0.76250000, 0.00000000, 0.01250000
4945, 0.76250000, 0.00000000, 0.01875000
4946, 0.76250000, 0.00000000, 0.02500000
4947, 0.76250000, 0.00000000, 0.03125000
4948, 0.76250000, 0.00000000, 0.03750000
4949, 0.76250000, 0.00000000, 0.04375000
4950, 0.76250000, 0.00000000, 0.05000000
4951, 0.76250000, 0.00625000, 0.00000000
4952, 0.76250000, 0.00625000, 0.00625000
4953, 0.76250000, 0.00625000, 0.01250000
4954, 0.76250000, 0.00625000, 0.01875000
4955, 0.76250000, 0.00625000, 0.02500000
4956, 0.76250000, 0.00625000, 0.03125000
4957, 0.76250000, 0.00625000, 0.03750000
4958, 0.76250000, 0.00625000, 0.04375000
4959, 0.76250000, 0.00625000, 0.05000000
4960, 0.76250000, 0.01250000, 0.00000000
4961, 0.76250000, 0.01250000, 0.00625000
4962, 0.76250000, 0.01250000, 0.01250000
4963, 0.76250000, 0.01250000, 0.01875000
4964, 0.76250000, 0.01250000, 0.02500000
4965, 0.76250000, 0.01250000, 0.03125000
4966, 0.76250000, 0.01250000, 0.03750000
4967, 0.76250000, 0.01250000, 0.04375000
4968, 0.76250000, 0.01250000, 0.05000000
4969, 0.76250000, 0.01875000, 0.00000000
4970, 0.76250000, 0.01875000, 0.00625000
4971, 0.76250000, 0.01875000, 0.01250000
4972, 0.76250000, 0.01875000, 0.01875000
4973, 0.76250000, 0.01875000, 0.02500000
4974, 0.76250000, 0.01875000, 0.03125000
4975, 0.76250000, 0.01875000, 0.03750000
4976, 0.76250000, 0.01875000, 0.04375000
4977, 0.76250000, 0.01875000, 0.05000000
4978, 0.76250000, 0.02500000, 0.00000000
4979, 0.76250000, 0.02500000, 0.00625000
4980, 0.76250000, 0.02500000, 0.01250000
4981, 0.76250000, 0.02500000, 0.01875000
4982, 0.76250000, 0.02500000, 0.02500000
4983, 0.76250000, 0.02500000, 0.03125000
4984, 0.76250000, 0.02500000, 0.03750000
4985, 0.76250000, 0.02500000, 0.04375000
4986, 0.76250000, 0.02500000, 0.05000000
4987, 0.76250000, 0.03125000, 0.00000000
4988, 0.76250000, 0.03125000, 0.00625000
4989, 0.76250000, 0.03125000, 0.01250000
4990, 0.76250000, 0.03125000, 0.01875000
4991, 0.76250000, 0.03125000, 0.02500000
4992, 0.76250000, 0.03125000, 0.03125000
4993, 0.76250000, 0.03125000, 0.03750000
4994, 0.76250000, 0.03125000, 0.04375000
4995, 0.76250000, 0.03125000, 0.05000000
4996, 0.76250000, 0.03750000, 0.00000000
4997, 0.76250000, 0.03750000, 0.00625000
4998, 0.76250000, 0.03750000, 0.01250000
4999, 0.76250000, 0.03750000, 0.01875000
5000, 0.76250000, 0.03750000, 0.02500000
5001, 0.76250000, 0.03750000, 0.03125000
5002, 0.76250000, 0.03750000, 0.03750000
5003, 0.76250000, 0.03750000, 0.04375000
5004, 0.76250000, 0.03750000, 0.05000000
5005, 0.76250000, 0.04375000, 0.00000000
5006, 0.76250000, 0.04375000, 0.00625000
5007, 0.76250000, 0.04375000, 0.01250000
5008, 0.76250000, 0.04375000, 0.01875000
5009, 0.76250000, 0.04375000, 0.02500000
5010, 0.76250000, 0.04375000, 0.03125000
5011, 0.76250000, 0.04375000, 0.03750000
5012, 0.76250000, 0.04375000, 0.04375000
5013, 0.76250000, 0.04375000, 0.05000000
5014, 0.76250000, 0.05000000, 0.00000000
5015, 0.76250000, 0.05000000, 0.00625000
5016, 0.76250000, 0.05000000, 0.01250000
5017, 0.76250000, 0.05000000, 0.01875000
5018, 0.76250000, 0.05000000, 0.02500000
5019, 0.76250000, 0.05000000, 0.03125000
5020, 0.76250000, 0.05000000, 0.03750000
5021, 0.76250000, 0.05000000, 0.04375000
5022, 0.76250000, 0.05000000, 0.05000000
5023, 0.77500000, 0.00000000, 0.00000000
5024, 0.77500000, 0.00000000, 0.00625000
5025, 0.77500000, 0.00000000, 0.01250000
5026, 0.77500000, 0.00000000, 0.01875000
5027, 0.77500000, 0.00000000, 0.02500000
5028, 0.77500000, 0.00000000, 0.03125000
5029, 0.77500000, 0.00000000, 0.03750000
5030, 0.77500000, 0.00000000, 0.04375000
5031, 0.77500000, 0.00000000, 0.05000000
5032, 0.77500000, 0.00625000, 0.00000000
5033, 0.77500000, 0.00625000, 0.00625000
5034, 0.77500000, 0.00625000, 0.01250000
5035, 0.77500000, 0.00625000, 0.01875000
5036, 0.77500000, 0.00625000, 0.02500000
5037, 0.77500000, 0.00625000, 0.03125000
5038, 0.77500000, 0.00625000, 0.03750000
5039, 0.77500000, 0.00625000, 0.04375000
5040, 0.77500000, 0.00625000, 0.05000000
5041, 0.77500000, 0.01250000, 0.00000000
5042, 0.77500000, 0.01250000, 0.00625000
5043, 0.77500000, 0.01250000, 0.01250000
5044, 0.77500000, 0.01250000, 0.01875000
5045, 0.77500000, 0.01250000, 0.02500000
5046, 0.77500000, 0.01250000, 0.03125000
5047, 0.77500000, 0.01250000, 0.03750000
5048, 0.77500000, 0.01250000, 0.04375000
5049, 0.77500000, 0.01250000, 0.05000000
5050, 0.77500000, 0.01875000, 0.00000000
5051, 0.77500000, 0.01875000, 0.00625000
5052, 0.77500000, 0.01875000, 0.01250000
5053, 0.77500000, 0.01875000, 0.01875000
5054, 0.77500000, 0.01875000, 0.02500000
5055, 0.77500000, 0.01875000, 0.03125000
5056, 0.77500000, 0.01875000, 0.03750000
5057, 0.77500000, 0.01875000, 0.04375000
5058, 0.77500000, 0.01875000, 0.05000000
5059, 0.77500000, 0.02500000, 0.00000000
5060, 0.77500000, 0.02500000, 0.00625000
5061, 0.77500000, 0.02500000, 0.01250000
5062, 0.77500000, 0.02500000, 0.01875000
5063, 0.77500000, 0.02500000, 0.02500000
5064, 0.77500000, 0.02500000, 0.03125000
5065, 0.77500000, 0.02500000, 0.03750000
5066, 0.77500000, 0.02500000, 0.04375000
5067, 0.77500000, 0.02500000, 0.05000000
5068, 0.77500000, 0.03125000, 0.00000000
5069, 0.77500000, 0.03125000, 0.00625000
5070, 0.77500000, 0.03125000, 0.01250000
5071, 0.77500000, 0.03125000, 0.01875000
5072, 0.77500000, 0.03125000, 0.02500000
5073, 0.77500000, 0.03125000, 0.03125000
5074, 0.77500000, 0.03125000, 0.03750000
5075, 0.77500000, 0.03125000, 0.04375000
5076, 0.77500000, 0.03125000, 0.05000000
5077, 0.77500000, 0.03750000, 0.00000000
5078, 0.77500000, 0.03750000, 0.00625000
5079, 0.77500000, 0.03750000, 0.01250000
5080, 0.77500000, 0.03750000, 0.01875000
5081, 0.77500000, 0.03750000, 0.02500000
5082, 0.77500000, 0.03750000, 0.03125000
5083, 0.77500000, 0.03750000, 0.03750000
5084, 0.77500000, 0.03750000, 0.04375000
5085, 0.77500000, 0.03750000, 0.05000000
5086, 0.77500000, 0.04375000, 0.00000000
5087, 0.77500000, 0.04375000, 0.00625000
5088, 0.77500000, 0.04375000, 0.01250000
5089, 0.77500000, 0.04375000, 0.01875000
5090, 0.77500000, 0.04375000, 0.02500000
5091, 0.77500000, 0.04375000, 0.03125000
5092, 0.77500000, 0.04375000, 0.03750000
5093, 0.77500000, 0.04375000, 0.04375000
5094, 0.77500000, 0.04375000, 0.05000000
5095, 0.77500000, 0.05000000, 0.00000000
5096, 0.77500000, 0.05000000, 0.00625000
5097, 0.77500000, 0.05000000, 0.01250000
5098, 0.77500000, 0.05000000, 0.01875000
5099, 0.77500000, 0.05000000, 0.02500000
5100, 0.77500000, 0.05000000, 0.03125000
5101, 0.77500000, 0.05000000, 0.03750000
5102, 0.77500000, 0.05000000, 0.04375000
5103, 0.77500000, 0.05000000, 0.05000000
5104, 0.78750000, 0.00000000, 0.00000000
5105, 0.78750000, 0.00000000, 0.00625000
5106, 0.78750000, 0.00000000, 0.01250000
5107, 0.78750000, 0.00000000, 0.01875000
5108, 0.78750000, 0.00000000, 0.02500000
5109, 0.78750000, 0.00000000, 0.03125000
5110, 0.78750000, 0.00000000, 0.03750000
5111, 0.78750000, 0.00000000, 0.04375000
5112, 0.78750000, 0.00000000, 0.05000000
5113, 0.78750000, 0.00625000, 0.00000000
5114, 0.78750000, 0.00625000, 0.00625000
5115, 0.78750000, 0.00625000, 0.01250000
5116, 0.78750000, 0.00625000, 0.01875000
5117, 0.78750000, 0.00625000, 0.02500000
5118, 0.78750000, 0.00625000, 0.03125000
5119, 0.78750000, 0.00625000, 0.03750000
5120, 0.78750000, 0.00625000, 0.04375000
5121, 0.78750000, 0.00625000, 0.05000000
5122, 0.78750000, 0.01250000, 0.00000000
5123, 0.78750000, 0.01250000, 0.00625000
5124, 0.78750000, 0.01250000, 0.01250000
5125, 0.78750000, 0.01250000, 0.01875000
5126, 0.78750000, 0.01250000, 0.02500000
5127, 0.78750000, 0.01250000, 0.03125000
5128, 0.78750000, 0.01250000, 0.03750000
5129, 0.78750000, 0.01250000, 0.04375000
5130, 0.78750000, 0.01250000, 0.05000000
5131, 0.78750000, 0.01875000, 0.00000000
5132, 0.78750000, 0.01875000, 0.00625000
5133, 0.78750000, 0.01875000, 0.01250000
5134, 0.78750000, 0.01875000, 0.01875000
5135, 0.78750000, 0.01875000, 0.02500000
5136, 0.78750000, 0.01875000, 0.03125000
5137, 0.78750000, 0.01875000, 0.03750000
5138, 0.78750000, 0.01875000, 0.04375000
5139, 0.78750000, 0.01875000, 0.05000000
5140, 0.78750000, 0.02500000, 0.00000000
5141, 0.78750000, 0.02500000, 0.00625000
5142, 0.78750000, 0.02500000, 0.01250000
5143, 0.78750000, 0.02500000, 0.01875000
5144, 0.78750000, 0.02500000, 0.02500000
5145, 0.78750000, 0.02500000, 0.03125000
5146, 0.78750000, 0.02500000, 0.03750000
5147, 0.78750000, 0.02500000, 0.04375000
5148, 0.78750000, 0.02500000, 0.05000000
5149, 0.78750000, 0.03125000, 0.00000000
5150, 0.78750000, 0.03125000, 0.00625000
5151, 0.78750000, 0.03125000, 0.01250000
5152, 0.78750000, 0.03125000, 0.01875000
5153, 0.78750000, 0.03125000, 0.02500000
5154, 0.78750000, 0.03125000, 0.03125000
5155, 0.78750000, 0.03125000, 0.03750000
5156, 0.78750000, 0.03125000, 0.04375000
5157, 0.78750000, 0.03125000, 0.05000000
5158, 0.78750000, 0.03750000, 0.00000000
5159, 0.78750000, 0.03750000, 0.00625000
5160, 0.78750000, 0.03750000, 0.01250000
5161, 0.78750000, 0.03750000, 0.01875000
5162, 0.78750000, 0.03750000, 0.02500000
5163, 0.78750000, 0.03750000, 0.03125000
5164, 0.78750000, 0.03750000, 0.03750000
5165, 0.78750000, 0.03750000, 0.04375000
5166, 0.78750000, 0.03750000, 0.05000000
5167, 0.78750000, 0.04375000, 0.00000000
5168, 0.78750000, 0.04375000, 0.00625000
5169, 0.78750000, 0.04375000, 0.01250000
5170, 0.78750000, 0.04375000, 0.01875000
5171, 0.78750000, 0.04375000, 0.02500000
5172, 0.78750000, 0.04375000, 0.03125000
5173, 0.78750000, 0.04375000, 0.03750000
5174, 0.78750000, 0.04375000, 0.04375000
5175, 0.78750000, 0.04375000, 0.05000000
5176, 0.78750000, 0.05000000, 0.00000000
5177, 0.78750000, 0.05000000, 0.00625000
5178, 0.78750000, 0.05000000, 0.01250000
5179, 0.78750000, 0.05000000, 0.01875000
5180, 0.78750000, 0.05000000, 0.02500000
5181, 0.78750000, 0.05000000, 0.03125000
5182, 0.78750000, 0.05000000, 0.03750000
5183, 0.78750000, 0.05000000, 0.04375000
5184, 0.78750000, 0.05000000, 0.05000000
5185, 0.80000000, 0.00000000, 0.00000000
5186, 0.80000000, 0.00000000, 0.00625000
5187, 0.80000000, 0.00000000, 0.01250000
5188, 0.80000000, 0.00000000, 0.01875000
5189, 0.80000000, 0.00000000, 0.02500000
5190, 0.80000000, 0.00000000, 0.03125000
5191, 0.80000000, 0.00000000, 0.03750000
5192, 0.80000000, 0.00000000, 0.04375000
5193, 0.80000000, 0.00000000, 0.05000000
5194, 0.80000000, 0.00625000, 0.00000000
5195, 0.80000000, 0.00625000, 0.00625000
5196, 0.80000000, 0.00625000, 0.01250000
5197, 0.80000000, 0.00625000, 0.01875000
5198, 0.80000000, 0.00625000, 0.02500000
5199, 0.80000000, 0.00625000, 0.03125000
5200, 0.80000000, 0.00625000, 0.03750000
5201, 0.80000000, 0.00625000, 0.04375000
5202, 0.80000000, 0.00625000, 0.05000000
5203, 0.80000000, 0.01250000, 0.00000000
5204, 0.80000000, 0.01250000, 0.00625000
5205, 0.80000000, 0.01250000, 0.01250000
5206, 0.80000000, 0.01250000, 0.01875000
5207, 0.80000000, 0.01250000, 0.02500000
5208, 0.80000000, 0.01250000, 0.03125000
5209, 0.80000000, 0.01250000, 0.03750000
5210, 0.80000000, 0.01250000, 0.04375000
5211, 0.80000000, 0.01250000, 0.05000000
5212, 0.80000000, 0.01875000, 0.00000000
5213, 0.80000000, 0.01875000, 0.00625000
5214, 0.80000000, 0.01875000, 0.01250000
5215, 0.80000000, 0.01875000, 0.01875000
5216, 0.80000000, 0.01875000, 0.02500000
5217, 0.80000000, 0.01875000, 0.03125000
5218, 0.80000000, 0.01875000, 0.03750000
5219, 0.80000000, 0.01875000, 0.04375000
5220, 0.80000000, 0.01875000, 0.05000000
5221, 0.80000000, 0.02500000, 0.00000000
5222, 0.80000000, 0.02500000, 0.00625000
5223, 0.80000000, 0.02500000, 0.01250000
5224, 0.80000000, 0.02500000, 0.01875000
5225, 0.80000000, 0.02500000, 0.02500000
5226, 0.80000000, 0.02500000, 0.03125000
5227, 0.80000000, 0.02500000, 0.03750000
5228, 0.80000000, 0.02500000, 0.04375000
5229, 0.80000000, 0.02500000, 0.05000000
5230, 0.80000000, 0.03125000, 0.00000000
5231, 0.80000000, 0.03125000, 0.00625000
5232, 0.80000000, 0.03125000, 0.01250000
5233, 0.80000000, 0.03125000, 0.01875000
5234, 0.80000000, 0.03125000, 0.02500000
5235, 0.80000000, 0.03125000, 0.03125000
5236, 0.80000000, 0.03125000, 0.03750000
5237, 0.80000000, 0.03125000, 0.04375000
5238, 0.80000000, 0.03125000, 0.05000000
5239, 0.80000000, 0.03750000, 0.00000000
5240, 0.80000000, 0.03750000, 0.00625000
5241, 0.80000000, 0.03750000, 0.01250000
5242, 0.80000000, 0.03750000, 0.01875000
5243, 0.80000000, 0.03750000, 0.02500000
5244, 0.80000000, 0.03750000, 0.03125000
5245, 0.80000000, 0.03750000, 0.03750000
5246, 0.80000000, 0.03750000, 0.04375000
5247, 0.80000000, 0.03750000, 0.05000000
5248, 0.80000000, 0.04375000, 0.00000000
5249, 0.80000000, 0.04375000, 0.00625000
5250, 0.80000000, 0.04375000, 0.01250000
5251, 0.80000000, 0.04375000, 0.01875000
5252, 0.80000000, 0.04375000, 0.02500000
5253, 0.80000000, 0.04375000, 0.03125000
5254, 0.80000000, 0.04375000, 0.03750000
5255, 0.80000000, 0.04375000, 0.04375000
5256, 0.80000000, 0.04375000, 0.05000000
5257, 0.80000000, 0.05000000, 0.00000000
5258, 0.80000000, 0.05000000, 0.00625000
5259, 0.80000000, 0.05000000, 0.01250000
5260, 0.80000000, 0.05000000, 0.01875000
5261, 0.80000000, 0.05000000, 0.02500000
5262, 0.80000000, 0.05000000, 0.03125000
5263, 0.80000000, 0.05000000, 0.03750000
5264, 0.80000000, 0.05000000, 0.04375000
5265, 0.80000000, 0.05000000, 0.05000000
5266, 0.81250000, 0.00000000, 0.00000000
5267, 0.81250000, 0.00000000, 0.00625000
5268, 0.81250000, 0.00000000, 0.01250000
5269, 0.81250000, 0.00000000, 0.01875000
5270, 0.81250000, 0.00000000, 0.02500000
5271, 0.81250000, 0.00000000, 0.03125000
5272, 0.81250000, 0.00000000, 0.03750000
5273, 0.81250000, 0.00000000, 0.04375000
5274, 0.81250000, 0.00000000, 0.05000000
5275, 0.81250000, 0.00625000, 0.00000000
5276, 0.81250000, 0.00625000, 0.00625000
5277, 0.81250000, 0.00625000, 0.01250000
5278, 0.81250000, 0.00625000, 0.01875000
5279, 0.81250000, 0.00625000, 0.02500000
5280, 0.81250000, 0.00625000, 0.03125000
5281, 0.81250000, 0.00625000, 0.03750000
5282, 0.81250000, 0.00625000, 0.04375000
5283, 0.81250000, 0.00625000, 0.05000000
5284, 0.81250000, 0.01250000, 0.00000000
5285, 0.81250000, 0.01250000, 0.00625000
5286, 0.81250000, 0.01250000, 0.01250000
5287, 0.81250000, 0.01250000, 0.01875000
5288, 0.81250000, 0.01250000, 0.02500000
5289, 0.81250000, 0.01250000, 0.03125000
5290, 0.81250000, 0.01250000, 0.03750000
5291, 0.81250000, 0.01250000, 0.04375000
5292, 0.81250000, 0.01250000, 0.05000000
5293, 0.81250000, 0.01875000, 0.00000000
5294, 0.81250000, 0.01875000, 0.00625000
5295, 0.81250000, 0.01875000, 0.01250000
5296, 0.81250000, 0.01875000, 0.01875000
5297, 0.81250000, 0.01875000, 0.02500000
5298, 0.81250000, 0.01875000, 0.03125000
5299, 0.81250000, 0.01875000, 0.03750000
5300, 0.81250000, 0.01875000, 0.04375000
5301, 0.81250000, 0.01875000, 0.05000000
5302, 0.81250000, 0.02500000, 0.00000000
5303, 0.81250000, 0.02500000, 0.00625000
5304, 0.81250000, 0.02500000, 0.01250000
5305, 0.81250000, 0.02500000, 0.01875000
5306, 0.81250000, 0.02500000, 0.02500000
5307, 0.81250000, 0.02500000, 0.03125000
5308, 0.81250000, 0.02500000, 0.03750000
5309, 0.81250000, 0.02500000, 0.04375000
5310, 0.81250000, 0.02500000, 0.05000000
5311, 0.81250000, 0.03125000, 0.00000000
5312, 0.81250000, 0.03125000, 0.00625000
5313, 0.81250000, 0.03125000, 0.01250000
5314, 0.81250000, 0.03125000, 0.01875000
5315, 0.81250000, 0.03125000, 0.02500000
5316, 0.81250000, 0.03125000, 0.03125000
5317, 0.81250000, 0.03125000, 0.03750000
5318, 0.81250000, 0.03125000, 0.04375000
5319, 0.81250000, 0.03125000, 0.05000000
5320, 0.81250000, 0.03750000, 0.00000000
5321, 0.81250000, 0.03750000, 0.00625000
5322, 0.81250000, 0.03750000, 0.01250000
5323, 0.81250000, 0.03750000, 0.01875000
5324, 0.81250000, 0.03750000, 0.02500000
5325, 0.81250000, 0.03750000, 0.03125000
5326, 0.81250000, 0.03750000, 0.03750000
5327, 0.81250000, 0.03750000, 0.04375000
5328, 0.81250000, 0.03750000, 0.05000000
5329, 0.81250000, 0.04375000, 0.00000000
5330, 0.81250000, 0.04375000, 0.00625000
5331, 0.81250000, 0.04375000, 0.01250000
5332, 0.81250000, 0.04375000, 0.01875000
5333, 0.81250000, 0.04375000, 0.02500000
5334, 0.81250000, 0.04375000, 0.03125000
5335, 0.81250000, 0.04375000, 0.03750000
5336, 0.81250000, 0.04375000, 0.04375000
5337, 0.81250000, 0.04375000, 0.05000000
5338, 0.81250000, 0.05000000, 0.00000000
5339, 0.81250000, 0.05000000, 0.00625000
5340, 0.81250000, 0.05000000, 0.01250000
5341, 0.81250000, 0.05000000, 0.01875000
5342, 0.81250000, 0.05000000, 0.02500000
5343, 0.81250000, 0.05000000, 0.03125000
5344, 0.81250000, 0.05000000, 0.03750000
5345, 0.81250000, 0.05000000, 0.04375000
5346, 0.81250000, 0.05000000, 0.05000000
5347, 0.82500000, 0.00000000, 0.00000000
5348, 0.82500000, 0.00000000, 0.00625000
5349, 0.82500000, 0.00000000, 0.01250000
5350, 0.82500000, 0.00000000, 0.01875000
5351, 0.82500000, 0.00000000, 0.02500000
5352, 0.82500000, 0.00000000, 0.03125000
5353, 0.82500000, 0.00000000, 0.03750000
5354, 0.82500000, 0.00000000, 0.04375000
5355, 0.82500000, 0.00000000, 0.05000000
5356, 0.82500000, 0.00625000, 0.00000000
5357, 0.82500000, 0.00625000, 0.00625000
5358, 0.82500000, 0.00625000, 0.01250000
5359, 0.82500000, 0.00625000, 0.01875000
5360, 0.82500000, 0.00625000, 0.02500000
5361, 0.82500000, 0.00625000, 0.03125000
5362, 0.82500000, 0.00625000, 0.03750000
5363, 0.82500000, 0.00625000, 0.04375000
5364, 0.82500000, 0.00625000, 0.05000000
5365, 0.82500000, 0.01250000, 0.00000000
5366, 0.82500000, 0.01250000, 0.00625000
5367, 0.82500000, 0.01250000, 0.01250000
5368, 0.82500000, 0.01250000, 0.01875000
5369, 0.82500000, 0.01250000, 0.02500000
5370, 0.82500000, 0.01250000, 0.03125000
5371, 0.82500000, 0.01250000, 0.03750000
5372, 0.82500000, 0.01250000, 0.04375000
5373, 0.82500000, 0.01250000, 0.05000000
5374, 0.82500000, 0.01875000, 0.00000000
5375, 0.82500000, 0.01875000, 0.00625000
5376, 0.82500000, 0.01875000, 0.01250000
5377, 0.82500000, 0.01875000, 0.01875000
5378, 0.82500000, 0.01875000, 0.02500000
5379, 0.82500000, 0.01875000, 0.03125000
5380, 0.82500000, 0.01875000, 0.03750000
5381, 0.82500000, 0.01875000, 0.04375000
5382, 0.82500000, 0.01875000, 0.05000000
5383, 0.82500000, 0.02500000, 0.00000000
5384, 0.82500000, 0.02500000, 0.00625000
5385, 0.82500000, 0.02500000, 0.01250000
5386, 0.82500000, 0.02500000, 0.01875000
5387, 0.82500000, 0.02500000, 0.02500000
5388, 0.82500000, 0.02500000, 0.03125000
5389, 0.82500000, 0.02500000, 0.03750000
5390, 0.82500000, 0.02500000, 0.04375000
5391, 0.82500000, 0.02500000, 0.05000000
5392, 0.82500000, 0.03125000, 0.00000000
5393, 0.82500000, 0.03125000, 0.00625000
5394, 0.82500000, 0.03125000, 0.01250000
5395, 0.82500000, 0.03125000, 0.01875000
5396, 0.82500000, 0.03125000, 0.02500000
5397, 0.82500000, 0.03125000, 0.03125000
5398, 0.82500000, 0.03125000, 0.03750000
5399, 0.82500000, 0.03125000, 0.04375000
5400, 0.82500000, 0.03125000, 0.05000000
5401, 0.82500000, 0.03750000, 0.00000000
5402, 0.82500000, 0.03750000, 0.00625000
5403, 0.82500000, 0.03750000, 0.01250000
5404, 0.82500000, 0.03750000, 0.01875000
5405, 0.82500000, 0.03750000, 0.02500000
5406, 0.82500000, 0.03750000, 0.03125000
5407, 0.82500000, 0.03750000, 0.03750000
5408, 0.82500000, 0.03750000, 0.04375000
5409, 0.82500000, 0.03750000, 0.05000000
5410, 0.82500000, 0.04375000, 0.00000000
5411, 0.82500000, 0.04375000, 0.00625000
5412, 0.82500000, 0.04375000, 0.01250000
5413, 0.82500000, 0.04375000, 0.01875000
5414, 0.82500000, 0.04375000, 0.02500000
5415, 0.82500000, 0.04375000, 0.03125000
5416, 0.82500000, 0.04375000, 0.03750000
5417, 0.82500000, 0.04375000, 0.04375000
5418, 0.82500000, 0.04375000, 0.05000000
5419, 0.82500000, 0.05000000, 0.00000000
5420, 0.82500000, 0.05000000, 0.00625000
5421, 0.82500000, 0.05000000, 0.01250000
5422, 0.82500000, 0.05000000, 0.01875000
5423, 0.82500000, 0.05000000, 0.02500000
5424, 0.82500000, 0.05000000, 0.03125000
5425, 0.82500000, 0.05000000, 0.03750000
5426, 0.82500000, 0.05000000, 0.04375000
5427, 0.82500000, 0.05000000, 0.05000000
5428, 0.83750000, 0.00000000, 0.00000000
5429, 0.83750000, 0.00000000, 0.00625000
5430, 0.83750000, 0.00000000, 0.01250000
5431, 0.83750000, 0.00000000, 0.01875000
5432, 0.83750000, 0.00000000, 0.02500000
5433, 0.83750000, 0.00000000, 0.03125000
5434, 0.83750000, 0.00000000, 0.03750000
5435, 0.83750000, 0.00000000, 0.04375000
5436, 0.83750000, 0.00000000, 0.05000000
5437, 0.83750000, 0.00625000, 0.00000000
5438, 0.83750000, 0.00625000, 0.00625000
5439, 0.83750000, 0.00625000, 0.01250000
5440, 0.83750000, 0.00625000, 0.01875000
5441, 0.83750000, 0.00625000, 0.02500000
5442, 0.83750000, 0.00625000, 0.03125000
5443, 0.83750000, 0.00625000, 0.03750000
5444, 0.83750000, 0.00625000, 0.04375000
5445, 0.83750000, 0.00625000, 0.05000000
5446, 0.83750000, 0.01250000, 0.00000000
5447, 0.83750000, 0.01250000, 0.00625000
5448, 0.83750000, 0.01250000, 0.01250000
5449, 0.83750000, 0.01250000, 0.01875000
5450, 0.83750000, 0.01250000, 0.02500000
5451, 0.83750000, 0.01250000, 0.03125000
5452, 0.83750000, 0.01250000, 0.03750000
5453, 0.83750000, 0.01250000, 0.04375000
5454, 0.83750000, 0.01250000, 0.05000000
5455, 0.83750000, 0.01875000, 0.00000000
5456, 0.83750000, 0.01875000, 0.00625000
5457, 0.83750000, 0.01875000, 0.01250000
5458, 0.83750000, 0.01875000, 0.01875000
5459, 0.83750000, 0.01875000, 0.02500000
5460, 0.83750000, 0.01875000, 0.03125000
5461, 0.83750000, 0.01875000, 0.03750000
5462, 0.83750000, 0.01875000, 0.04375000
5463, 0.83750000, 0.01875000, 0.05000000
5464, 0.83750000, 0.02500000, 0.00000000
5465, 0.83750000, 0.02500000, 0.00625000
5466, 0.83750000, 0.02500000, 0.01250000
5467, 0.83750000, 0.02500000, 0.01875000
5468, 0.83750000, 0.02500000, 0.02500000
5469, 0.83750000, 0.02500000, 0.03125000
5470, 0.83750000, 0.02500000, 0.03750000
5471, 0.83750000, 0.02500000, 0.04375000
5472, 0.83750000, 0.02500000, 0.05000000
5473, 0.83750000, 0.03125000, 0.00000000
5474, 0.83750000, 0.03125000, 0.00625000
5475, 0.83750000, 0.03125000, 0.01250000
5476, 0.83750000, 0.03125000, 0.01875000
5477, 0.83750000, 0.03125000, 0.02500000
5478, 0.83750000, 0.03125000, 0.03125000
5479, 0.83750000, 0.03125000, 0.03750000
5480, 0.83750000, 0.03125000, 0.04375000
5481, 0.83750000, 0.03125000, 0.05000000
5482, 0.83750000, 0.03750000, 0.00000000
5483, 0.83750000, 0.03750000, 0.00625000
5484, 0.83750000, 0.03750000, 0.01250000
5485, 0.83750000, 0.03750000, 0.01875000
5486, 0.83750000, 0.03750000, 0.02500000
5487, 0.83750000, 0.03750000, 0.03125000
5488, 0.83750000, 0.03750000, 0.03750000
5489, 0.83750000, 0.03750000, 0.04375000
5490, 0.83750000, 0.03750000, 0.05000000
5491, 0.83750000, 0.04375000, 0.00000000
5492, 0.83750000, 0.04375000, 0.00625000
5493, 0.83750000, 0.04375000, 0.01250000
5494, 0.83750000, 0.04375000, 0.01875000
5495, 0.83750000, 0.04375000, 0.02500000
5496, 0.83750000, 0.04375000, 0.03125000
5497, 0.83750000, 0.04375000, 0.03750000
5498, 0.83750000, 0.04375000, 0.04375000
5499, 0.83750000, 0.04375000, 0.05000000
5500, 0.83750000, 0.05000000, 0.00000000
5501, 0.83750000, 0.05000000, 0.00625000
5502, 0.83750000, 0.05000000, 0.01250000
5503, 0.83750000, 0.05000000, 0.01875000
5504, 0.83750000, 0.05000000, 0.02500000
5505, 0.83750000, 0.05000000, 0.03125000
5506, 0.83750000, 0.05000000, 0.03750000
5507, 0.83750000, 0.05000000, 0.04375000
5508, 0.83750000, 0.05000000, 0.05000000
5509, 0.85000000, 0.00000000, 0.00000000
5510, 0.85000000, 0.00000000, 0.00625000
5511, 0.85000000, 0.00000000, 0.01250000
5512, 0.85000000, 0.00000000, 0.01875000
5513, 0.85000000, 0.00000000, 0.02500000
5514, 0.85000000, 0.00000000, 0.03125000
5515, 0.85000000, 0.00000000, 0.03750000
5516, 0.85000000, 0.00000000, 0.04375000
5517, 0.85000000, 0.00000000, 0.05000000
5518, 0.85000000, 0.00625000, 0.00000000
5519, 0.85000000, 0.00625000, 0.00625000
5520, 0.85000000, 0.00625000, 0.01250000
5521, 0.85000000, 0.00625000, 0.01875000
5522, 0.85000000, 0.00625000, 0.02500000
5523, 0.85000000, 0.00625000, 0.03125000
5524, 0.85000000, 0.00625000, 0.03750000
5525, 0.85000000, 0.00625000, 0.04375000
5526, 0.85000000, 0.00625000, 0.05000000
5527, 0.85000000, 0.01250000, 0.00000000
5528, 0.85000000, 0.01250000, 0.00625000
5529, 0.85000000, 0.01250000, 0.01250000
5530, 0.85000000, 0.01250000, 0.01875000
5531, 0.85000000, 0.01250000, 0.02500000
5532, 0.85000000, 0.01250000, 0.03125000
5533, 0.85000000, 0.01250000, 0.03750000
5534, 0.85000000, 0.01250000, 0.04375000
5535, 0.85000000, 0.01250000, 0.05000000
5536, 0.85000000, 0.01875000, 0.00000000
5537, 0.85000000, 0.01875000, 0.00625000
5538, 0.85000000, 0.01875000, 0.01250000
5539, 0.85000000, 0.01875000, 0.01875000
5540, 0.85000000, 0.01875000, 0.02500000
5541, 0.85000000, 0.01875000, 0.03125000
5542, 0.85000000, 0.01875000, 0.03750000
5543, 0.85000000, 0.01875000, 0.04375000
5544, 0.85000000, 0.01875000, 0.05000000
5545, 0.85000000, 0.02500000, 0.00000000
5546, 0.85000000, 0.02500000, 0.00625000
5547, 0.85000000, 0.02500000, 0.01250000
5548, 0.85000000, 0.02500000, 0.01875000
5549, 0.85000000, 0.02500000, 0.02500000
5550, 0.85000000, 0.02500000, 0.03125000
5551, 0.85000000, 0.02500000, 0.03750000
5552, 0.85000000, 0.02500000, 0.04375000
5553, 0.85000000, 0.02500000, 0.05000000
5554, 0.85000000, 0.03125000, 0.00000000
5555, 0.85000000, 0.03125000, 0.00625000
5556, 0.85000000, 0.03125000, 0.01250000
5557, 0.85000000, 0.03125000, 0.01875000
5558, 0.85000000, 0.03125000, 0.02500000
5559, 0.85000000, 0.03125000, 0.03125000
5560, 0.85000000, 0.03125000, 0.03750000
5561, 0.85000000, 0.03125000, 0.04375000
5562, 0.85000000, 0.03125000, 0.05000000
5563, 0.85000000, 0.03750000, 0.00000000
5564, 0.85000000, 0.03750000, 0.00625000
5565, 0.85000000, 0.03750000, 0.01250000
5566, 0.85000000, 0.03750000, 0.01875000
5567, 0.85000000, 0.03750000, 0.02500000
5568, 0.85000000, 0.03750000, 0.03125000
5569, 0.85000000, 0.03750000, 0.03750000
5570, 0.85000000, 0.03750000, 0.04375000
5571, 0.85000000, 0.03750000, 0.05000000
5572, 0.85000000, 0.04375000, 0.00000000
5573, 0.85000000, 0.04375000, 0.00625000
5574, 0.85000000, 0.04375000, 0.01250000
5575, 0.85000000, 0.04375000, 0.01875000
5576, 0.85000000, 0.04375000, 0.02500000
5577, 0.85000000, 0.04375000, 0.03125000
5578, 0.85000000, 0.04375000, 0.03750000
5579, 0.85000000, 0.04375000, 0.04375000
5580, 0.85000000, 0.04375000, 0.05000000
5581, 0.85000000, 0.05000000, 0.00000000
5582, 0.85000000, 0.05000000, 0.00625000
5583, 0.85000000, 0.05000000, 0.01250000
5584, 0.85000000, 0.05000000, 0.01875000
5585, 0.85000000, 0.05000000, 0.02500000
5586, 0.85000000, 0.05000000, 0.03125000
5587, 0.85000000, 0.05000000, 0.03750000
5588, 0.85000000, 0.05000000, 0.04375000
5589, 0.85000000, 0.05000000, 0.05000000
5590, 0.86250000, 0.00000000, 0.00000000
5591, 0.86250000, 0.00000000, 0.00625000
5592, 0.86250000, 0.00000000, 0.01250000
5593, 0.86250000, 0.00000000, 0.01875000
5594, 0.86250000, 0.00000000, 0.02500000
5595, 0.86250000, 0.00000000, 0.03125000
5596, 0.86250000, 0.00000000, 0.03750000
5597, 0.86250000, 0.00000000, 0.04375000
5598, 0.86250000, 0.00000000, 0.05000000
5599, 0.86250000, 0.00625000, 0.00000000
5600, 0.86250000, 0.00625000, 0.00625000
5601, 0.86250000, 0.00625000, 0.01250000
5602, 0.86250000, 0.00625000, 0.01875000
5603, 0.86250000, 0.00625000, 0.02500000
5604, 0.86250000, 0.00625000, 0.03125000
5605, 0.86250000, 0.00625000, 0.03750000
5606, 0.86250000, 0.00625000, 0.04375000
5607, 0.86250000, 0.00625000, 0.05000000
5608, 0.86250000, 0.01250000, 0.00000000
5609, 0.86250000, 0.01250000, 0.00625000
5610, 0.86250000, 0.01250000, 0.01250000
5611, 0.86250000, 0.01250000, 0.01875000
5612, 0.86250000, 0.01250000, 0.02500000
5613, 0.86250000, 0.01250000, 0.03125000
5614, 0.86250000, 0.01250000, 0.03750000
5615, 0.86250000, 0.01250000, 0.04375000
5616, 0.86250000, 0.01250000, 0.05000000
5617, 0.86250000, 0.01875000, 0.00000000
5618, 0.86250000, 0.01875000, 0.00625000
5619, 0.86250000, 0.01875000, 0.01250000
5620, 0.86250000, 0.01875000, 0.01875000
5621, 0.86250000, 0.01875000, 0.02500000
5622, 0.86250000, 0.01875000, 0.03125000
5623, 0.86250000, 0.01875000, 0.03750000
5624, 0.86250000, 0.01875000, 0.04375000
5625, 0.86250000, 0.01875000, 0.05000000
5626, 0.86250000, 0.02500000, 0.00000000
5627, 0.86250000, 0.02500000, 0.00625000
5628, 0.86250000, 0.02500000, 0.01250000
5629, 0.86250000, 0.02500000, 0.01875000
5630, 0.86250000, 0.02500000, 0.02500000
5631, 0.86250000, 0.02500000, 0.03125000
5632, 0.86250000, 0.02500000, 0.03750000
5633, 0.86250000, 0.02500000, 0.04375000
5634, 0.86250000, 0.02500000, 0.05000000
5635, 0.86250000, 0.03125000, 0.00000000
5636, 0.86250000, 0.03125000, 0.00625000
5637, 0.86250000, 0.03125000, 0.01250000
5638, 0.86250000, 0.03125000, 0.01875000
5639, 0.86250000, 0.03125000, 0.02500000
5640, 0.86250000, 0.03125000, 0.03125000
5641, 0.86250000, 0.03125000, 0.03750000
5642, 0.86250000, 0.03125000, 0.04375000
5643, 0.86250000, 0.03125000, 0.05000000
5644, 0.86250000, 0.03750000, 0.00000000
5645, 0.86250000, 0.03750000, 0.00625000
5646, 0.86250000, 0.03750000, 0.01250000
5647, 0.86250000, 0.03750000, 0.01875000
5648, 0.86250000, 0.03750000, 0.02500000
5649, 0.86250000, 0.03750000, 0.03125000
5650, 0.86250000, 0.03750000, 0.03750000
5651, 0.86250000, 0.03750000, 0.04375000
5652, 0.86250000, 0.03750000, 0.05000000
5653, 0.86250000, 0.04375000, 0.00000000
5654, 0.86250000, 0.04375000, 0.00625000
5655, 0.86250000, 0.04375000, 0.01250000
5656, 0.86250000, 0.04375000, 0.01875000
5657, 0.86250000, 0.04375000, 0.02500000
5658, 0.86250000, 0.04375000, 0.03125000
5659, 0.86250000, 0.04375000, 0.03750000
5660, 0.86250000, 0.04375000, 0.04375000
5661, 0.86250000, 0.04375000, 0.05000000
5662, 0.86250000, 0.05000000, 0.00000000
5663, 0.86250000, 0.05000000, 0.00625000
5664, 0.86250000, 0.05000000, 0.01250000
5665, 0.86250000, 0.05000000, 0.01875000
5666, 0.86250000, 0.05000000, 0.02500000
5667, 0.86250000, 0.05000000, 0.03125000
5668, 0.86250000, 0.05000000, 0.03750000
5669, 0.86250000, 0.05000000, 0.04375000
5670, 0.86250000, 0.05000000, 0.05000000
5671, 0.87500000, 0.00000000, 0.00000000
5672, 0.87500000, 0.00000000, 0.00625000
5673, 0.87500000, 0.00000000, 0.01250000
5674, 0.87500000, 0.00000000, 0.01875000
5675, 0.87500000, 0.00000000, 0.02500000
5676, 0.87500000, 0.00000000, 0.03125000
5677, 0.87500000, 0.00000000, 0.03750000
5678, 0.87500000, 0.00000000, 0.04375000
5679, 0.87500000, 0.00000000, 0.05000000
5680, 0.87500000, 0.00625000, 0.00000000
5681, 0.87500000, 0.00625000, 0.00625000
5682, 0.87500000, 0.00625000, 0.01250000
5683, 0.87500000, 0.00625000, 0.01875000
5684, 0.87500000, 0.00625000, 0.02500000
5685, 0.87500000, 0.00625000, 0.03125000
5686, 0.87500000, 0.00625000, 0.03750000
5687, 0.87500000, 0.00625000, 0.04375000
5688, 0.87500000, 0.00625000, 0.05000000
5689, 0.87500000, 0.01250000, 0.00000000
5690, 0.87500000, 0.01250000, 0.00625000
5691, 0.87500000, 0.01250000, 0.01250000
5692, 0.87500000, 0.01250000, 0.01875000
5693, 0.87500000, 0.01250000, 0.02500000
5694, 0.87500000, 0.01250000, 0.03125000
5695, 0.87500000, 0.01250000, 0.03750000
5696, 0.87500000, 0.01250000, 0.04375000
5697, 0.87500000, 0.01250000, 0.05000000
5698, 0.87500000, 0.01875000, 0.00000000
5699, 0.87500000, 0.01875000, 0.00625000
5700, 0.87500000, 0.01875000, 0.01250000
5701, 0.87500000, 0.01875000, 0.01875000
5702, 0.87500000, 0.01875000, 0.02500000
5703, 0.87500000, 0.01875000, 0.03125000
5704, 0.87500000, 0.01875000, 0.03750000
5705, 0.87500000, 0.01875000, 0.04375000
5706, 0.87500000, 0.01875000, 0.05000000
5707, 0.87500000, 0.02500000, 0.00000000
5708, 0.87500000, 0.02500000, 0.00625000
5709, 0.87500000, 0.02500000, 0.01250000
5710, 0.87500000, 0.02500000, 0.01875000
5711, 0.87500000, 0.02500000, 0.02500000
5712, 0.87500000, 0.02500000, 0.03125000
5713, 0.87500000, 0.02500000, 0.03750000
5714, 0.87500000, 0.02500000, 0.04375000
5715, 0.87500000, 0.02500000, 0.05000000
5716, 0.87500000, 0.03125000, 0.00000000
5717, 0.87500000, 0.03125000, 0.00625000
5718, 0.87500000, 0.03125000, 0.01250000
5719, 0.87500000, 0.03125000, 0.01875000
5720, 0.87500000, 0.03125000, 0.02500000
5721, 0.87500000, 0.03125000, 0.03125000
5722, 0.87500000, 0.03125000, 0.03750000
5723, 0.87500000, 0.03125000, 0.04375000
5724, 0.87500000, 0.03125000, 0.05000000
5725, 0.87500000, 0.03750000, 0.00000000
5726, 0.87500000, 0.03750000, 0.00625000
5727, 0.87500000, 0.03750000, 0.01250000
5728, 0.87500000, 0.03750000, 0.01875000
5729, 0.87500000, 0.03750000, 0.02500000
5730, 0.87500000, 0.03750000, 0.03125000
5731, 0.87500000, 0.03750000, 0.03750000
5732, 0.87500000, 0.03750000, 0.04375000
5733, 0.87500000, 0.03750000, 0.05000000
5734, 0.87500000, 0.04375000, 0.00000000
5735, 0.87500000, 0.04375000, 0.00625000
5736, 0.87500000, 0.04375000, 0.01250000
5737, 0.87500000, 0.04375000, 0.01875000
5738, 0.87500000, 0.04375000, 0.02500000
5739, 0.87500000, 0.04375000, 0.03125000
5740, 0.87500000, 0.04375000, 0.03750000
5741, 0.87500000, 0.04375000, 0.04375000
5742, 0.87500000, 0.04375000, 0.05000000
5743, 0.87500000, 0.05000000, 0.00000000
5744, 0.87500000, 0.05000000, 0.00625000
5745, 0.87500000, 0.05000000, 0.01250000
5746, 0.87500000, 0.05000000, 0.01875000
5747, 0.87500000, 0.05000000, 0.02500000
5748, 0.87500000, 0.05000000, 0.03125000
5749, 0.87500000, 0.05000000, 0.03750000
5750, 0.87500000, 0.05000000, 0.04375000
5751, 0.87500000, 0.05000000, 0.05000000
5752, 0.88750000, 0.00000000, 0.00000000
5753, 0.88750000, 0.00000000, 0.00625000
5754, 0.88750000, 0.00000000, 0.01250000
5755, 0.88750000, 0.00000000, 0.01875000
5756, 0.88750000, 0.00000000, 0.02500000
5757, 0.88750000, 0.00000000, 0.03125000
5758, 0.88750000, 0.00000000, 0.03750000
5759, 0.88750000, 0.00000000, 0.04375000
5760, 0.88750000, 0.00000000, 0.05000000
5761, 0.88750000, 0.00625000, 0.00000000
5762, 0.88750000, 0.00625000, 0.00625000
5763, 0.88750000, 0.00625000, 0.01250000
5764, 0.88750000, 0.00625000, 0.01875000
5765, 0.88750000, 0.00625000, 0.02500000
5766, 0.88750000, 0.00625000, 0.03125000
5767, 0.88750000, 0.00625000, 0.03750000
5768, 0.88750000, 0.00625000, 0.04375000
5769, 0.88750000, 0.00625000, 0.05000000
5770, 0.88750000, 0.01250000, 0.00000000
5771, 0.88750000, 0.01250000, 0.00625000
5772, 0.88750000, 0.01250000, 0.01250000
5773, 0.88750000, 0.01250000, 0.01875000
5774, 0.88750000, 0.01250000, 0.02500000
5775, 0.88750000, 0.01250000, 0.03125000
5776, 0.88750000, 0.01250000, 0.03750000
5777, 0.88750000, 0.01250000, 0.04375000
5778, 0.88750000, 0.01250000, 0.05000000
5779, 0.88750000, 0.01875000, 0.00000000
5780, 0.88750000, 0.01875000, 0.00625000
5781, 0.88750000, 0.01875000, 0.01250000
5782, 0.88750000, 0.01875000, 0.01875000
5783, 0.88750000, 0.01875000, 0.02500000
5784, 0.88750000, 0.01875000, 0.03125000
5785, 0.88750000, 0.01875000, 0.03750000
5786, 0.88750000, 0.01875000, 0.04375000
5787, 0.88750000, 0.01875000, 0.05000000
5788, 0.88750000, 0.02500000, 0.00000000
5789, 0.88750000, 0.02500000, 0.00625000
5790, 0.88750000, 0.02500000, 0.01250000
5791, 0.88750000, 0.02500000, 0.01875000
5792, 0.88750000, 0.02500000, 0.02500000
5793, 0.88750000, 0.02500000, 0.03125000
5794, 0.88750000, 0.02500000, 0.03750000
5795, 0.88750000, 0.02500000, 0.04375000
5796, 0.88750000, 0.02500000, 0.05000000
5797, 0.88750000, 0.03125000, 0.00000000
5798, 0.88750000, 0.03125000, 0.00625000
5799, 0.88750000, 0.03125000, 0.01250000
5800, 0.88750000, 0.03125000, 0.01875000
5801, 0.88750000, 0.03125000, 0.02500000
5802, 0.88750000, 0.03125000, 0.03125000
5803, 0.88750000, 0.03125000, 0.03750000
5804, 0.88750000, 0.03125000, 0.04375000
5805, 0.88750000, 0.03125000, 0.05000000
5806, 0.88750000, 0.03750000, 0.00000000
5807, 0.88750000, 0.03750000, 0.00625000
5808, 0.88750000, 0.03750000, 0.01250000
5809, 0.88750000, 0.03750000, 0.01875000
5810, 0.88750000, 0.03750000, 0.02500000
5811, 0.88750000, 0.03750000, 0.03125000
5812, 0.88750000, 0.03750000, 0.03750000
5813, 0.88750000, 0.03750000, 0.04375000
5814, 0.88750000, 0.03750000, 0.05000000
5815, 0.88750000, 0.04375000, 0.00000000
5816, 0.88750000, 0.04375000, 0.00625000
5817, 0.88750000, 0.04375000, 0.01250000
5818, 0.88750000, 0.04375000, 0.01875000
5819, 0.88750000, 0.04375000, 0.02500000
5820, 0.88750000, 0.04375000, 0.03125000
5821, 0.88750000, 0.04375000, 0.03750000
5822, 0.88750000, 0.04375000, 0.04375000
5823, 0.88750000, 0.04375000, 0.05000000
5824, 0.88750000, 0.05000000, 0.00000000
5825, 0.88750000, 0.05000000, 0.00625000
5826, 0.88750000, 0.05000000, 0.01250000
5827, 0.88750000, 0.05000000, 0.01875000
5828, 0.88750000, 0.05000000, 0.02500000
5829, 0.88750000, 0.05000000, 0.03125000
5830, 0.88750000, 0.05000000, 0.03750000
5831, 0.88750000, 0.05000000, 0.04375000
5832, 0.88750000, 0.05000000, 0.05000000
5833, 0.90000000, 0.00000000, 0.00000000
5834, 0.90000000, 0.00000000, 0.00625000
5835, 0.90000000, 0.00000000, 0.01250000
5836, 0.90000000, 0.00000000, 0.01875000
5837, 0.90000000, 0.00000000, 0.02500000
5838, 0.90000000, 0.00000000, 0.03125000
5839, 0.90000000, 0.00000000, 0.03750000
5840, 0.90000000, 0.00000000, 0.04375000
5841, 0.90000000, 0.00000000, 0.05000000
5842, 0.90000000, 0.00625000, 0.00000000
5843, 0.90000000, 0.00625000, 0.00625000
5844, 0.90000000, 0.00625000, 0.01250000
5845, 0.90000000, 0.00625000, 0.01875000
5846, 0.90000000, 0.00625000, 0.02500000
5847, 0.90000000, 0.00625000, 0.03125000
5848, 0.90000000, 0.00625000, 0.03750000
5849, 0.90000000, 0.00625000, 0.04375000
5850, 0.90000000, 0.00625000, 0.05000000
5851, 0.90000000, 0.01250000, 0.00000000
5852, 0.90000000, 0.01250000, 0.00625000
5853, 0.90000000, 0.01250000, 0.01250000
5854, 0.90000000, 0.01250000, 0.01875000
5855, 0.90000000, 0.01250000, 0.02500000
5856, 0.90000000, 0.01250000, 0.03125000
5857, 0.90000000, 0.01250000, 0.03750000
5858, 0.90000000, 0.01250000, 0.04375000
5859, 0.90000000, 0.01250000, 0.05000000
5860, 0.90000000, 0.01875000, 0.00000000
5861, 0.90000000, 0.01875000, 0.00625000
5862, 0.90000000, 0.01875000, 0.01250000
5863, 0.90000000, 0.01875000, 0.01875000
5864, 0.90000000, 0.01875000, 0.02500000
5865, 0.90000000, 0.01875000, 0.03125000
5866, 0.90000000, 0.01875000, 0.03750000
5867, 0.90000000, 0.01875000, 0.04375000
5868, 0.90000000, 0.01875000, 0.05000000
5869, 0.90000000, 0.02500000, 0.00000000
5870, 0.90000000, 0.02500000, 0.00625000
5871, 0.90000000, 0.02500000, 0.01250000
5872, 0.90000000, 0.02500000, 0.01875000
5873, 0.90000000, 0.02500000, 0.02500000
5874, 0.90000000, 0.02500000, 0.03125000
5875, 0.90000000, 0.02500000, 0.03750000
5876, 0.90000000, 0.02500000, 0.04375000
5877, 0.90000000, 0.02500000, 0.05000000
5878, 0.90000000, 0.03125000, 0.00000000
5879, 0.90000000, 0.03125000, 0.00625000
5880, 0.90000000, 0.03125000, 0.01250000
5881, 0.90000000, 0.03125000, 0.01875000
5882, 0.90000000, 0.03125000, 0.02500000
5883, 0.90000000, 0.03125000, 0.03125000
5884, 0.90000000, 0.03125000, 0.03750000
5885, 0.90000000, 0.03125000, 0.04375000
5886, 0.90000000, 0.03125000, 0.05000000
5887, 0.90000000, 0.03750000, 0.00000000
5888, 0.90000000, 0.03750000, 0.00625000
5889, 0.90000000, 0.03750000, 0.01250000
5890, 0.90000000, 0.03750000, 0.01875000
5891, 0.90000000, 0.03750000, 0.02500000
5892, 0.90000000, 0.03750000, 0.03125000
5893, 0.90000000, 0.03750000, 0.03750000
5894, 0.90000000, 0.03750000, 0.04375000
5895, 0.90000000, 0.03750000, 0.05000000
5896, 0.90000000, 0.04375000, 0.00000000
5897, 0.90000000, 0.04375000, 0.00625000
5898, 0.90000000, 0.04375000, 0.01250000
5899, 0.90000000, 0.04375000, 0.01875000
5900, 0.90000000, 0.04375000, 0.02500000
5901, 0.90000000, 0.04375000, 0.03125000
5902, 0.90000000, 0.04375000, 0.03750000
5903, 0.90000000, 0.04375000, 0.04375000
5904, 0.90000000, 0.04375000, 0.05000000
5905, 0.90000000, 0.05000000, 0.00000000
5906, 0.90000000, 0.05000000, 0.00625000
5907, 0.90000000, 0.05000000, 0.01250000
5908, 0.90000000, 0.05000000, 0.01875000
5909, 0.90000000, 0.05000000, 0.02500000
5910, 0.90000000, 0.05000000, 0.03125000
5911, 0.90000000, 0.05000000, 0.03750000
5912, 0.90000000, 0.05000000, 0.04375000
5913, 0.90000000, 0.05000000, 0.05000000
5914, 0.91250000, 0.00000000, 0.00000000
5915, 0.91250000, 0.00000000, 0.00625000
5916, 0.91250000, 0.00000000, 0.01250000
5917, 0.91250000, 0.00000000, 0.01875000
5918, 0.91250000, 0.00000000, 0.02500000
5919, 0.91250000, 0.00000000, 0.03125000
5920, 0.91250000, 0.00000000, 0.03750000
5921, 0.91250000, 0.00000000, 0.04375000
5922, 0.91250000, 0.00000000, 0.05000000
5923, 0.91250000, 0.00625000, 0.00000000
5924, 0.91250000, 0.00625000, 0.00625000
5925, 0.91250000, 0.00625000, 0.01250000
5926, 0.91250000, 0.00625000, 0.01875000
5927, 0.91250000, 0.00625000, 0.02500000
5928, 0.91250000, 0.00625000, 0.03125000
5929, 0.91250000, 0.00625000, 0.03750000
5930, 0.91250000, 0.00625000, 0.04375000
5931, 0.91250000, 0.00625000, 0.05000000
5932, 0.91250000, 0.01250000, 0.00000000
5933, 0.91250000, 0.01250000, 0.00625000
5934, 0.91250000, 0.01250000, 0.01250000
5935, 0.91250000, 0.01250000, 0.01875000
5936, 0.91250000, 0.01250000, 0.02500000
5937, 0.91250000, 0.01250000, 0.03125000
5938, 0.91250000, 0.01250000, 0.03750000
5939, 0.91250000, 0.01250000, 0.04375000
5940, 0.91250000, 0.01250000, 0.05000000
5941, 0.91250000, 0.01875000, 0.00000000
5942, 0.91250000, 0.01875000, 0.00625000
5943, 0.91250000, 0.01875000, 0.01250000
5944, 0.91250000, 0.01875000, 0.01875000
5945, 0.91250000, 0.01875000, 0.02500000
5946, 0.91250000, 0.01875000, 0.03125000
5947, 0.91250000, 0.01875000, 0.03750000
5948, 0.91250000, 0.01875000, 0.04375000
5949, 0.91250000, 0.01875000, 0.05000000
5950, 0.91250000, 0.02500000, 0.00000000
5951, 0.91250000, 0.02500000, 0.00625000
5952, 0.91250000, 0.02500000, 0.01250000
5953, 0.91250000, 0.02500000, 0.01875000
5954, 0.91250000, 0.02500000, 0.02500000
5955, 0.91250000, 0.02500000, 0.03125000
5956, 0.91250000, 0.02500000, 0.03750000
5957, 0.91250000, 0.02500000, 0.04375000
5958, 0.91250000, 0.02500000, 0.05000000
5959, 0.91250000, 0.03125000, 0.00000000
5960, 0.91250000, 0.03125000, 0.00625000
5961, 0.91250000, 0.03125000, 0.01250000
5962, 0.91250000, 0.03125000, 0.01875000
5963, 0.91250000, 0.03125000, 0.02500000
5964, 0.91250000, 0.03125000, 0.03125000
5965, 0.91250000, 0.03125000, 0.03750000
5966, 0.91250000, 0.03125000, 0.04375000
5967, 0.91250000, 0.03125000, 0.05000000
5968, 0.91250000, 0.03750000, 0.00000000
5969, 0.91250000, 0.03750000, 0.00625000
5970, 0.91250000, 0.03750000, 0.01250000
5971, 0.91250000, 0.03750000, 0.01875000
5972, 0.91250000, 0.03750000, 0.02500000
5973, 0.91250000, 0.03750000, 0.03125000
5974, 0.91250000, 0.03750000, 0.03750000
5975, 0.91250000, 0.03750000, 0.04375000
5976, 0.91250000, 0.03750000, 0.05000000
5977, 0.91250000, 0.04375000, 0.00000000
5978, 0.91250000, 0.04375000, 0.00625000
5979, 0.91250000, 0.04375000, 0.01250000
5980, 0.91250000, 0.04375000, 0.01875000
5981, 0.91250000, 0.04375000, 0.02500000
5982, 0.91250000, 0.04375000, 0.03125000
5983, 0.91250000, 0.04375000, 0.03750000
5984, 0.91250000, 0.04375000, 0.04375000
5985, 0.91250000, 0.04375000, 0.05000000
5986, 0.91250000, 0.05000000, 0.00000000
5987, 0.91250000, 0.05000000, 0.00625000
5988, 0.91250000, 0.05000000, 0.01250000
5989, 0.91250000, 0.05000000, 0.01875000
5990, 0.91250000, 0.05000000, 0.02500000
5991, 0.91250000, 0.05000000, 0.03125000
5992, 0.91250000, 0.05000000, 0.03750000
5993, 0.91250000, 0.05000000, 0.04375000
5994, 0.91250000, 0.05000000, 0.05000000
5995, 0.92500000, 0.00000000, 0.00000000
5996, 0.92500000, 0.00000000, 0.00625000
5997, 0.92500000, 0.00000000, 0.01250000
5998, 0.92500000, 0.00000000, 0.01875000
5999, 0.92500000, 0.00000000, 0.02500000
6000, 0.92500000, 0.00000000, 0.03125000
6001, 0.92500000, 0.00000000, 0.03750000
6002, 0.92500000, 0.00000000, 0.04375000
6003, 0.92500000, 0.00000000, 0.05000000
6004, 0.92500000, 0.00625000, 0.00000000
6005, 0.92500000, 0.00625000, 0.00625000
6006, 0.92500000, 0.00625000, 0.01250000
6007, 0.92500000, 0.00625000, 0.01875000
6008, 0.92500000, 0.00625000, 0.02500000
6009, 0.92500000, 0.00625000, 0.03125000
6010, 0.92500000, 0.00625000, 0.03750000
6011, 0.92500000, 0.00625000, 0.04375000
6012, 0.92500000, 0.00625000, 0.05000000
6013, 0.92500000, 0.01250000, 0.00000000
6014, 0.92500000, 0.01250000, 0.00625000
6015, 0.92500000, 0.01250000, 0.01250000
6016, 0.92500000, 0.01250000, 0.01875000
6017, 0.92500000, 0.01250000, 0.02500000
6018, 0.92500000, 0.01250000, 0.03125000
6019, 0.92500000, 0.01250000, 0.03750000
6020, 0.92500000, 0.01250000, 0.04375000
6021, 0.92500000, 0.01250000, 0.05000000
6022, 0.92500000, 0.01875000, 0.00000000
6023, 0.92500000, 0.01875000, 0.00625000
6024, 0.92500000, 0.01875000, 0.01250000
6025, 0.92500000, 0.01875000, 0.01875000
6026, 0.92500000, 0.01875000, 0.02500000
6027, 0.92500000, 0.01875000, 0.03125000
6028, 0.92500000, 0.01875000, 0.03750000
6029, 0.92500000, 0.01875000, 0.04375000
6030, 0.92500000, 0.01875000, 0.05000000
6031, 0.92500000, 0.02500000, 0.00000000
6032, 0.92500000, 0.02500000, 0.00625000
6033, 0.92500000, 0.02500000, 0.01250000
6034, 0.92500000, 0.02500000, 0.01875000
6035, 0.92500000, 0.02500000, 0.02500000
6036, 0.92500000, 0.02500000, 0.03125000
6037, 0.92500000, 0.02500000, 0.03750000
6038, 0.92500000, 0.02500000, 0.04375000
6039, 0.92500000, 0.02500000, 0.05000000
6040, 0.92500000, 0.03125000, 0.00000000
6041, 0.92500000, 0.03125000, 0.00625000
6042, 0.92500000, 0.03125000, 0.01250000
6043, 0.92500000, 0.03125000, 0.01875000
6044, 0.92500000, 0.03125000, 0.02500000
6045, 0.92500000, 0.03125000, 0.03125000
6046, 0.92500000, 0.03125000, 0.03750000
6047, 0.92500000, 0.03125000, 0.04375000
6048, 0.92500000, 0.03125000, 0.05000000
6049, 0.92500000, 0.03750000, 0.00000000
6050, 0.92500000, 0.03750000, 0.00625000
6051, 0.92500000, 0.03750000, 0.01250000
6052, 0.92500000, 0.03750000, 0.01875000
6053, 0.92500000, 0.03750000, 0.02500000
6054, 0.92500000, 0.03750000, 0.03125000
6055, 0.92500000, 0.03750000, 0.03750000
6056, 0.92500000, 0.03750000, 0.04375000
6057, 0.92500000, 0.03750000, 0.05000000
6058, 0.92500000, 0.04375000, 0.00000000
6059, 0.92500000, 0.04375000, 0.00625000
6060, 0.92500000, 0.04375000, 0.01250000
6061, 0.92500000, 0.04375000, 0.01875000
6062, 0.92500000, 0.04375000, 0.02500000
6063, 0.92500000, 0.04375000, 0.03125000
6064, 0.92500000, 0.04375000, 0.03750000
6065, 0.92500000, 0.04375000, 0.04375000
6066, 0.92500000, 0.04375000, 0.05000000
6067, 0.92500000, 0.05000000, 0.00000000
6068, 0.92500000, 0.05000000, 0.00625000
6069, 0.92500000, 0.05000000, 0.01250000
6070, 0.92500000, 0.05000000, 0.01875000
6071, 0.92500000, 0.05000000, 0.02500000
6072, 0.92500000, 0.05000000, 0.03125000
6073, 0.92500000, 0.05000000, 0.03750000
6074, 0.92500000, 0.05000000, 0.04375000
6075, 0.92500000, 0.05000000, 0.05000000
6076, 0.93750000, 0.00000000, 0.00000000
6077, 0.93750000, 0.00000000, 0.00625000
6078, 0.93750000, 0.00000000, 0.01250000
6079, 0.93750000, 0.00000000, 0.01875000
6080, 0.93750000, 0.00000000, 0.02500000
6081, 0.93750000, 0.00000000, 0.03125000
6082, 0.93750000, 0.00000000, 0.03750000
6083, 0.93750000, 0.00000000, 0.04375000
6084, 0.93750000, 0.00000000, 0.05000000
6085, 0.93750000, 0.00625000, 0.00000000
6086, 0.93750000, 0.00625000, 0.00625000
6087, 0.93750000, 0.00625000, 0.01250000
6088, 0.93750000, 0.00625000, 0.01875000
6089, 0.93750000, 0.00625000, 0.02500000
6090, 0.93750000, 0.00625000, 0.03125000
6091, 0.93750000, 0.00625000, 0.03750000
6092, 0.93750000, 0.00625000, 0.04375000
6093, 0.93750000, 0.00625000, 0.05000000
6094, 0.93750000, 0.01250000, 0.00000000
6095, 0.93750000, 0.01250000, 0.00625000
6096, 0.93750000, 0.01250000, 0.01250000
6097, 0.93750000, 0.01250000, 0.01875000
6098, 0.93750000, 0.01250000, 0.02500000
6099, 0.93750000, 0.01250000, 0.03125000
6100, 0.93750000, 0.01250000, 0.03750000
6101, 0.93750000, 0.01250000, 0.04375000
6102, 0.93750000, 0.01250000, 0.05000000
6103, 0.93750000, 0.01875000, 0.00000000
6104, 0.93750000, 0.01875000, 0.00625000
6105, 0.93750000, 0.01875000, 0.01250000
6106, 0.93750000, 0.01875000, 0.01875000
6107, 0.93750000, 0.01875000, 0.02500000
6108, 0.93750000, 0.01875000, 0.03125000
6109, 0.93750000, 0.01875000, 0.03750000
6110, 0.93750000, 0.01875000, 0.04375000
6111, 0.93750000, 0.01875000, 0.05000000
6112, 0.93750000, 0.02500000, 0.00000000
6113, 0.93750000, 0.02500000, 0.00625000
6114, 0.93750000, 0.02500000, 0.01250000
6115, 0.93750000, 0.02500000, 0.01875000
6116, 0.93750000, 0.02500000, 0.02500000
6117, 0.93750000, 0.02500000, 0.03125000
6118, 0.93750000, 0.02500000, 0.03750000
6119, 0.93750000, 0.02500000, 0.04375000
6120, 0.93750000, 0.02500000, 0.05000000
6121, 0.93750000, 0.03125000, 0.00000000
6122, 0.93750000, 0.03125000, 0.00625000
6123, 0.93750000, 0.03125000, 0.01250000
6124, 0.93750000, 0.03125000, 0.01875000
6125, 0.93750000, 0.03125000, 0.02500000
6126, 0.93750000, 0.03125000, 0.03125000
6127, 0.93750000, 0.03125000, 0.03750000
6128, 0.93750000, 0.03125000, 0.04375000
6129, 0.93750000, 0.03125000, 0.05000000
6130, 0.93750000, 0.03750000, 0.00000000
6131, 0.93750000, 0.03750000, 0.00625000
6132, 0.93750000, 0.03750000, 0.01250000
6133, 0.93750000, 0.03750000, 0.01875000
6134, 0.93750000, 0.03750000, 0.02500000
6135, 0.93750000, 0.03750000, 0.03125000
6136, 0.93750000, 0.03750000, 0.03750000
6137, 0.93750000, 0.03750000, 0.04375000
6138, 0.93750000, 0.03750000, 0.05000000
6139, 0.93750000, 0.04375000, 0.00000000
6140, 0.93750000, 0.04375000, 0.00625000
6141, 0.93750000, 0.04375000, 0.01250000
6142, 0.93750000, 0.04375000, 0.01875000
6143, 0.93750000, 0.04375000, 0.02500000
6144, 0.93750000, 0.04375000, 0.03125000
6145, 0.93750000, 0.04375000, 0.03750000
6146, 0.93750000, 0.04375000, 0.04375000
6147, 0.93750000, 0.04375000, 0.05000000
6148, 0.93750000, 0.05000000, 0.00000000
6149, 0.93750000, 0.05000000, 0.00625000
6150, 0.93750000, 0.05000000, 0.01250000
6151, 0.93750000, 0.05000000, 0.01875000
6152, 0.93750000, 0.05000000, 0.02500000
6153, 0.93750000, 0.05000000, 0.03125000
6154, 0.93750000, 0.05000000, 0.03750000
6155, 0.93750000, 0.05000000, 0.04375000
6156, 0.93750000, 0.05000000, 0.05000000
6157, 0.95000000, 0.00000000, 0.00000000
6158, 0.95000000, 0.00000000, 0.00625000
6159, 0.95000000, 0.00000000, 0.01250000
6160, 0.95000000, 0.00000000, 0.01875000
6161, 0.95000000, 0.00000000, 0.02500000
6162, 0.95000000, 0.00000000, 0.03125000
6163, 0.95000000, 0.00000000, 0.03750000
6164, 0.95000000, 0.00000000, 0.04375000
6165, 0.95000000, 0.00000000, 0.05000000
6166, 0.95000000, 0.00625000, 0.00000000
6167, 0.95000000, 0.00625000, 0.00625000
6168, 0.95000000, 0.00625000, 0.01250000
6169, 0.95000000, 0.00625000, 0.01875000
6170, 0.95000000, 0.00625000, 0.02500000
6171, 0.95000000, 0.00625000, 0.03125000
6172, 0.95000000, 0.00625000, 0.03750000
6173, 0.95000000, 0.00625000, 0.04375000
6174, 0.95000000, 0.00625000, 0.05000000
6175, 0.95000000, 0.01250000, 0.00000000
6176, 0.95000000, 0.01250000, 0.00625000
6177, 0.95000000, 0.01250000, 0.01250000
6178, 0.95000000, 0.01250000, 0.01875000
6179, 0.95000000, 0.01250000, 0.02500000
6180, 0.95000000, 0.01250000, 0.03125000
6181, 0.95000000, 0.01250000, 0.03750000
6182, 0.95000000, 0.01250000, 0.04375000
6183, 0.95000000, 0.01250000, 0.05000000
6184, 0.95000000, 0.01875000, 0.00000000
6185, 0.95000000, 0.01875000, 0.00625000
6186, 0.95000000, 0.01875000, 0.01250000
6187, 0.95000000, 0.01875000, 0.01875000
6188, 0.95000000, 0.01875000, 0.02500000
6189, 0.95000000, 0.01875000, 0.03125000
6190, 0.95000000, 0.01875000, 0.03750000
6191, 0.95000000, 0.01875000, 0.04375000
6192, 0.95000000, 0.01875000, 0.05000000
6193, 0.95000000, 0.02500000, 0.00000000
6194, 0.95000000, 0.02500000, 0.00625000
6195, 0.95000000, 0.02500000, 0.01250000
6196, 0.95000000, 0.02500000, 0.01875000
6197, 0.95000000, 0.02500000, 0.02500000
6198, 0.95000000, 0.02500000, 0.03125000
6199, 0.95000000, 0.02500000, 0.03750000
6200, 0.95000000, 0.02500000, 0.04375000
6201, 0.95000000, 0.02500000, 0.05000000
6202, 0.95000000, 0.03125000, 0.00000000
6203, 0.95000000, 0.03125000, 0.00625000
6204, 0.95000000, 0.03125000, 0.01250000
6205, 0.95000000, 0.03125000, 0.01875000
6206, 0.95000000, 0.03125000, 0.02500000
6207, 0.95000000, 0.03125000, 0.03125000
6208, 0.95000000, 0.03125000, 0.03750000
6209, 0.95000000, 0.03125000, 0.04375000
6210, 0.95000000, 0.03125000, 0.05000000
6211, 0.95000000, 0.03750000, 0.00000000
6212, 0.95000000, 0.03750000, 0.00625000
6213, 0.95000000, 0.03750000, 0.01250000
6214, 0.95000000, 0.03750000, 0.01875000
6215, 0.95000000, 0.03750000, 0.02500000
6216, 0.95000000, 0.03750000, 0.03125000
6217, 0.95000000, 0.03750000, 0.03750000
6218, 0.95000000, 0.03750000, 0.04375000
6219, 0.95000000, 0.03750000, 0.05000000
6220, 0.95000000, 0.04375000, 0.00000000
6221, 0.95000000, 0.04375000, 0.00625000
6222, 0.95000000, 0.04375000, 0.01250000
6223, 0.95000000, 0.04375000, 0.01875000
6224, 0.95000000, 0.04375000, 0.02500000
6225, 0.95000000, 0.04375000, 0.03125000
6226, 0.95000000, 0.04375000, 0.03750000
6227, 0.95000000, 0.04375000, 0.04375000
6228, 0.95000000, 0.04375000, 0.05000000
6229, 0.95000000, 0.05000000, 0.00000000
6230, 0.95000000, 0.05000000, 0.00625000
6231, 0.95000000, 0.05000000, 0.01250000
6232, 0.95000000, 0.05000000, 0.01875000
6233, 0.95000000, 0.05000000, 0.02500000
6234, 0.95000000, 0.05000000, 0.03125000
6235, 0.95000000, 0.05000000, 0.03750000
6236, 0.95000000, 0.05000000, 0.04375000
6237, 0.95000000, 0.05000000, 0.05000000
6238, 0.96250000, 0.00000000, 0.00000000
6239, 0.96250000, 0.00000000, 0.00625000
6240, 0.96250000, 0.00000000, 0.01250000
6241, 0.96250000, 0.00000000, 0.01875000
6242, 0.96250000, 0.00000000, 0.02500000
6243, 0.96250000, 0.00000000, 0.03125000
6244, 0.96250000, 0.00000000, 0.03750000
6245, 0.96250000, 0.00000000, 0.04375000
6246, 0.96250000, 0.00000000, 0.05000000
6247, 0.96250000, 0.00625000, 0.00000000
6248, 0.96250000, 0.00625000, 0.00625000
6249, 0.96250000, 0.00625000, 0.01250000
6250, 0.96250000, 0.00625000, 0.01875000
6251, 0.96250000, 0.00625000, 0.02500000
6252, 0.96250000, 0.00625000, 0.03125000
6253, 0.96250000, 0.00625000, 0.03750000
6254, 0.96250000, 0.00625000, 0.04375000
6255, 0.96250000, 0.00625000, 0.05000000
6256, 0.96250000, 0.01250000, 0.00000000
6257, 0.96250000, 0.01250000, 0.00625000
6258, 0.96250000, 0.01250000, 0.01250000
6259, 0.96250000, 0.01250000, 0.01875000
6260, 0.96250000, 0.01250000, 0.02500000
6261, 0.96250000, 0.01250000, 0.03125000
6262, 0.96250000, 0.01250000, 0.03750000
6263, 0.96250000, 0.01250000, 0.04375000
6264, 0.96250000, 0.01250000, 0.05000000
6265, 0.96250000, 0.01875000, 0.00000000
6266, 0.96250000, 0.01875000, 0.00625000
6267, 0.96250000, 0.01875000, 0.01250000
6268, 0.96250000, 0.01875000, 0.01875000
6269, 0.96250000, 0.01875000, 0.02500000
6270, 0.96250000, 0.01875000, 0.03125000
6271, 0.96250000, 0.01875000, 0.03750000
6272, 0.96250000, 0.01875000, 0.04375000
6273, 0.96250000, 0.01875000, 0.05000000
6274, 0.96250000, 0.02500000, 0.00000000
6275, 0.96250000, 0.02500000, 0.00625000
6276, 0.96250000, 0.02500000, 0.01250000
6277, 0.96250000, 0.02500000, 0.01875000
6278, 0.96250000, 0.02500000, 0.02500000
6279, 0.96250000, 0.02500000, 0.03125000
6280, 0.96250000, 0.02500000, 0.03750000
6281, 0.96250000, 0.02500000, 0.04375000
6282, 0.96250000, 0.02500000, 0.05000000
6283, 0.96250000, 0.03125000, 0.00000000
6284, 0.96250000, 0.03125000, 0.00625000
6285, 0.96250000, 0.03125000, 0.01250000
6286, 0.96250000, 0.03125000, 0.01875000
6287, 0.96250000, 0.03125000, 0.02500000
6288, 0.96250000, 0.03125000, 0.03125000
6289, 0.96250000, 0.03125000, 0.03750000
6290, 0.96250000, 0.03125000, 0.04375000
6291, 0.96250000, 0.03125000, 0.05000000
6292, 0.96250000, 0.03750000, 0.00000000
6293, 0.96250000, 0.03750000, 0.00625000
6294, 0.96250000, 0.03750000, 0.01250000
6295, 0.96250000, 0.03750000, 0.01875000
6296, 0.96250000, 0.03750000, 0.02500000
6297, 0.96250000, 0.03750000, 0.03125000
6298, 0.96250000, 0.03750000, 0.03750000
6299, 0.96250000, 0.03750000, 0.04375000
6300, 0.96250000, 0.03750000, 0.05000000
6301, 0.96250000, 0.04375000, 0.00000000
6302, 0.96250000, 0.04375000, 0.00625000
6303, 0.96250000, 0.04375000, 0.01250000
6304, 0.96250000, 0.04375000, 0.01875000
6305, 0.96250000, 0.04375000, 0.02500000
6306, 0.96250000, 0.04375000, 0.03125000
6307, 0.96250000, 0.04375000, 0.03750000
6308, 0.96250000, 0.04375000, 0.04375000
6309, 0.96250000, 0.04375000, 0.05000000
6310, 0.96250000, 0.05000000, 0.00000000
6311, 0.96250000, 0.05000000, 0.00625000
6312, 0.96250000, 0.05000000, 0.01250000
6313, 0.96250000, 0.05000000, 0.01875000
6314, 0.96250000, 0.05000000, 0.02500000
6315, 0.96250000, 0.05000000, 0.03125000
6316, 0.96250000, 0.05000000, 0.03750000
6317, 0.96250000, 0.05000000, 0.04375000
6318, 0.96250000, 0.05000000, 0.05000000
6319, 0.97500000, 0.00000000, 0.00000000
6320, 0.97500000, 0.00000000, 0.00625000
6321, 0.97500000, 0.00000000, 0.01250000
6322, 0.97500000, 0.00000000, 0.01875000
6323, 0.97500000, 0.00000000, 0.02500000
6324, 0.97500000, 0.00000000, 0.03125000
6325, 0.97500000, 0.00000000, 0.03750000
6326, 0.97500000, 0.00000000, 0.04375000
6327, 0.97500000, 0.00000000, 0.05000000
6328, 0.97500000, 0.00625000, 0.00000000
6329, 0.97500000, 0.00625000, 0.00625000
6330, 0.97500000, 0.00625000, 0.01250000
6331, 0.97500000, 0.00625000, 0.01875000
6332, 0.97500000, 0.00625000, 0.02500000
6333, 0.97500000, 0.00625000, 0.03125000
6334, 0.97500000, 0.00625000, 0.03750000
6335, 0.97500000, 0.00625000, 0.04375000
6336, 0.97500000, 0.00625000, 0.05000000
6337, 0.97500000, 0.01250000, 0.00000000
6338, 0.97500000, 0.01250000, 0.00625000
6339, 0.97500000, 0.01250000, 0.01250000
6340, 0.97500000, 0.01250000, 0.01875000
6341, 0.97500000, 0.01250000, 0.02500000
6342, 0.97500000, 0.01250000, 0.03125000
6343, 0.97500000, 0.01250000, 0.03750000
6344, 0.97500000, 0.01250000, 0.04375000
6345, 0.97500000, 0.01250000, 0.05000000
6346, 0.97500000, 0.01875000, 0.00000000
6347, 0.97500000, 0.01875000, 0.00625000
6348, 0.97500000, 0.01875000, 0.01250000
6349, 0.97500000, 0.01875000, 0.01875000
6350, 0.97500000, 0.01875000, 0.02500000
6351, 0.97500000, 0.01875000, 0.03125000
6352, 0.97500000, 0.01875000, 0.03750000
6353, 0.97500000, 0.01875000, 0.04375000
6354, 0.97500000, 0.01875000, 0.05000000
6355, 0.97500000, 0.02500000, 0.00000000
6356, 0.97500000, 0.02500000, 0.00625000
6357, 0.97500000, 0.02500000, 0.01250000
6358, 0.97500000, 0.02500000, 0.01875000
6359, 0.97500000, 0.02500000, 0.02500000
6360, 0.97500000, 0.02500000, 0.03125000
6361, 0.97500000, 0.02500000, 0.03750000
6362, 0.97500000, 0.02500000, 0.04375000
6363, 0.97500000, 0.02500000, 0.05000000
6364, 0.97500000, 0.03125000, 0.00000000
6365, 0.97500000, 0.03125000, 0.00625000
6366, 0.97500000, 0.03125000, 0.01250000
6367, 0.97500000, 0.03125000, 0.01875000
6368, 0.97500000, 0.03125000, 0.02500000
6369, 0.97500000, 0.03125000, 0.03125000
6370, 0.97500000, 0.03125000, 0.03750000
6371, 0.97500000, 0.03125000, 0.04375000
6372, 0.97500000, 0.03125000, 0.05000000
6373, 0.97500000, 0.03750000, 0.00000000
6374, 0.97500000, 0.03750000, 0.00625000
6375, 0.97500000, 0.03750000, 0.01250000
6376, 0.97500000, 0.03750000, 0.01875000
6377, 0.97500000, 0.03750000, 0.02500000
6378, 0.97500000, 0.03750000, 0.03125000
6379, 0.97500000, 0.03750000, 0.03750000
6380, 0.97500000, 0.03750000, 0.04375000
6381, 0.97500000, 0.03750000, 0.05000000
6382, 0.97500000, 0.04375000, 0.00000000
6383, 0.97500000, 0.04375000, 0.00625000
6384, 0.97500000, 0.04375000, 0.01250000
6385, 0.97500000, 0.04375000, 0.01875000
6386, 0.97500000, 0.04375000, 0.02500000
6387, 0.97500000, 0.04375000, 0.03125000
6388, 0.97500000, 0.04375000, 0.03750000
6389, 0.97500000, 0.04375000, 0.04375000
6390, 0.97500000, 0.04375000, 0.05000000
6391, 0.97500000, 0.05000000, 0.00000000
6392, 0.97500000, 0.05000000, 0.00625000
6393, 0.97500000, 0.05000000, 0.01250000
6394, 0.97500000, 0.05000000, 0.01875000
6395, 0.97500000, 0.05000000, 0.02500000
6396, 0.97500000, 0.05000000, 0.03125000
6397, 0.97500000, 0.05000000, 0.03750000
6398, 0.97500000, 0.05000000, 0.04375000
6399, 0.97500000, 0.05000000, 0.05000000
6400, 0.98750000, 0.00000000, 0.00000000
6401, 0.98750000, 0.00000000, 0.00625000
6402, 0.98750000, 0.00000000, 0.01250000
6403, 0.98750000, 0.00000000, 0.01875000
6404, 0.98750000, 0.00000000, 0.02500000
6405, 0.98750000, 0.00000000, 0.03125000
6406, 0.98750000, 0.00000000, 0.03750000
6407, 0.98750000, 0.00000000, 0.04375000
6408, 0.98750000, 0.00000000, 0.05000000
6409, 0.98750000, 0.00625000, 0.00000000
6410, 0.98750000, 0.00625000, 0.00625000
6411, 0.98750000, 0.00625000, 0.01250000
6412, 0.98750000, 0.00625000, 0.01875000
6413, 0.98750000, 0.00625000, 0.02500000
6414, 0.98750000, 0.00625000, 0.03125000
6415, 0.98750000, 0.00625000, 0.03750000
6416, 0.98750000, 0.00625000, 0.04375000
6417, 0.98750000, 0.00625000, 0.05000000
6418, 0.98750000, 0.01250000, 0.00000000
6419, 0.98750000, 0.01250000, 0.00625000
6420, 0.98750000, 0.01250000, 0.01250000
6421, 0.98750000, 0.01250000, 0.01875000
6422, 0.98750000, 0.01250000, 0.02500000
6423, 0.98750000, 0.01250000, 0.03125000
6424, 0.98750000, 0.01250000, 0.03750000
6425, 0.98750000, 0.01250000, 0.04375000
6426, 0.98750000, 0.01250000, 0.05000000
6427, 0.98750000, 0.01875000, 0.00000000
6428, 0.98750000, 0.01875000, 0.00625000
6429, 0.98750000, 0.01875000, 0.01250000
6430, 0.98750000, 0.01875000, 0.01875000
6431, 0.98750000, 0.01875000, 0.02500000
6432, 0.98750000, 0.01875000, 0.03125000
6433, 0.98750000, 0.01875000, 0.03750000
6434, 0.98750000, 0.01875000, 0.04375000
6435, 0.98750000, 0.01875000, 0.05000000
6436, 0.98750000, 0.02500000, 0.00000000
6437, 0.98750000, 0.02500000, 0.00625000
6438, 0.98750000, 0.02500000, 0.01250000
6439, 0.98750000, 0.02500000, 0.01875000
6440, 0.98750000, 0.02500000, 0.02500000
6441, 0.98750000, 0.02500000, 0.03125000
6442, 0.98750000, 0.02500000, 0.03750000
6443, 0.98750000, 0.02500000, 0.04375000
6444, 0.98750000, 0.02500000, 0.05000000
6445, 0.98750000, 0.03125000, 0.00000000
6446, 0.98750000, 0.03125000, 0.00625000
6447, 0.98750000, 0.03125000, 0.01250000
6448, 0.98750000, 0.03125000, 0.01875000
6449, 0.98750000, 0.03125000, 0.02500000
6450, 0.98750000, 0.03125000, 0.03125000
6451, 0.98750000, 0.03125000, 0.03750000
6452, 0.98750000, 0.03125000, 0.04375000
6453, 0.98750000, 0.03125000, 0.05000000
6454, 0.98750000, 0.03750000, 0.00000000
6455, 0.98750000, 0.03750000, 0.00625000
6456, 0.98750000, 0.03750000, 0.01250000
6457, 0.98750000, 0.03750000, 0.01875000
6458, 0.98750000, 0.03750000, 0.02500000
6459, 0.98750000, 0.03750000, 0.03125000
6460, 0.98750000, 0.03750000, 0.03750000
6461, 0.98750000, 0.03750000, 0.04375000
6462, 0.98750000, 0.03750000, 0.05000000
6463, 0.98750000, 0.04375000, 0.00000000
6464, 0.98750000, 0.04375000, 0.00625000
6465, 0.98750000, 0.04375000, 0.01250000
6466, 0.98750000, 0.04375000, 0.01875000
6467, 0.98750000, 0.04375000, 0.02500000
6468, 0.98750000, 0.04375000, 0.03125000
6469, 0.98750000, 0.04375000, 0.03750000
6470, 0.98750000, 0.04375000, 0.04375000
6471, 0.98750000, 0.04375000, 0.05000000
6472, 0.98750000, 0.05000000, 0.00000000
6473, 0.98750000, 0.05000000, 0.00625000
6474, 0.98750000, 0.05000000, 0.01250000
6475, 0.98750000, 0.05000000, 0.01875000
6476, 0.98750000, 0.05000000, 0.02500000
6477, 0.98750000, 0.05000000, 0.03125000
6478, 0.98750000, 0.05000000, 0.03750000
6479, 0.98750000, 0.05000000, 0.04375000
6480, 0.98750000, 0.05000000, 0.05000000
6481, 1.00000000, 0.00000000, 0.00000000
6482, 1.00000000, 0.00000000, 0.00625000
6483, 1.00000000, 0.00000000, 0.01250000
6484, 1.00000000, 0.00000000, 0.01875000
6485, 1.00000000, 0.00000000, 0.02500000
6486, 1.00000000, 0.00000000, 0.03125000
6487, 1.00000000, 0.00000000, 0.03750000
6488, 1.00000000, 0.00000000, 0.04375000
6489, 1.00000000, 0.00000000, 0.05000000
6490, 1.00000000, 0.00625000, 0.00000000
6491, 1.00000000, 0.00625000, 0.00625000
6492, 1.00000000, 0.00625000, 0.01250000
6493, 1.00000000, 0.00625000, 0.01875000
6494, 1.00000000, 0.00625000, 0.02500000
6495, 1.00000000, 0.00625000, 0.03125000
6496, 1.00000000, 0.00625000, 0.03750000
6497, 1.00000000, 0.00625000, 0.04375000
6498, 1.00000000, 0.00625000, 0.05000000
6499, 1.00000000, 0.01250000, 0.00000000
6500, 1.00000000, 0.01250000, 0.00625000
6501, 1.00000000, 0.01250000, 0.01250000
6502, 1.00000000, 0.01250000, 0.01875000
6503, 1.00000000, 0.01250000, 0.02500000
6504, 1.00000000, 0.01250000, 0.03125000
6505, 1.00000000, 0.01250000, 0.03750000
6506, 1.00000000, 0.01250000, 0.04375000
6507, 1.00000000, 0.01250000, 0.05000000
6508, 1.00000000, 0.01875000, 0.00000000
6509, 1.00000000, 0.01875000, 0.00625000
6510, 1.00000000, 0.01875000, 0.01250000
6511, 1.00000000, 0.01875000, 0.01875000
6512, 1.00000000, 0.01875000, 0.02500000
6513, 1.00000000, 0.01875000, 0.03125000
6514, 1.00000000, 0.01875000, 0.03750000
6515, 1.00000000, 0.01875000, 0.04375000
6516, 1.00000000, 0.01875000, 0.05000000
6517, 1.00000000, 0.02500000, 0.00000000
6518, 1.00000000, 0.02500000, 0.00625000
6519, 1.00000000, 0.02500000, 0.01250000
6520, 1.00000000, 0.02500000, 0.01875000
6521, 1.00000000, 0.02500000, 0.02500000
6522, 1.00000000, 0.02500000, 0.03125000
6523, 1.00000000, 0.02500000, 0.03750000
6524, 1.00000000, 0.02500000, 0.04375000
6525, 1.00000000, 0.02500000, 0.05000000
6526, 1.00000000, 0.03125000, 0.00000000
6527, 1.00000000, 0.03125000, 0.00625000
6528, 1.00000000, 0.03125000, 0.01250000
6529, 1.00000000, 0.03125000, 0.01875000
6530, 1.00000000, 0.03125000, 0.02500000
6531, 1.00000000, 0.03125000, 0.03125000
6532, 1.00000000, 0.03125000, 0.03750000
6533, 1.00000000, 0.03125000, 0.04375000
6534, 1.00000000, 0.03125000, 0.05000000
6535, 1.00000000, 0.03750000, 0.00000000
6536, 1.00000000, 0.03750000, 0.00625000
6537, 1.00000000, 0.03750000, 0.01250000
6538, 1.00000000, 0.03750000, 0.01875000
6539, 1.00000000, 0.03750000, 0.02500000
6540, 1.00000000, 0.03750000, 0.03125000
6541, 1.00000000, 0.03750000, 0.03750000
6542, 1.00000000, 0.03750000, 0.04375000
6543, 1.00000000, 0.03750000, 0.05000000
6544, 1.00000000, 0.04375000, 0.00000000
6545, 1.00000000, 0.04375000, 0.00625000
6546, 1.00000000, 0.04375000, 0.01250000
6547, 1.00000000, 0.04375000, 0.01875000
6548, 1.00000000, 0.04375000, 0.02500000
6549, 1.00000000, 0.04375000, 0.03125000
6550, 1.00000000, 0.04375000, 0.03750000
6551, 1.00000000, 0.04375000, 0.04375000
6552, 1.00000000, 0.04375000, 0.05000000
6553, 1.00000000, 0.05000000, 0.00000000
6554, 1.00000000, 0.05000000, 0.00625000
6555, 1.00000000, 0.05000000, 0.01250000
6556, 1.00000000, 0.05000000, 0.01875000
6557, 1.00000000, 0.05000000, 0.02500000
6558, 1.00000000, 0.05000000, 0.03125000
6559, 1.00000000, 0.05000000, 0.03750000
6560, 1.00000000, 0.05000000, 0.04375000
6561, 1.00000000, 0.05000000, 0.05000000
*ELEMENT, TYPE=C3D8, ELSET=Eall
1, 1, 82, 91, 10, 2, 83, 92, 11
2, 2, 83, 92, 11, 3, 84, 93, 12
3, 3, 84, 93, 12, 4, 85, 94, 13
4, 4, 85, 94, 13, 5, 86, 95, 14
5, 5, 86, 95, 14, 6, 87, 96, 15
6, 6, 87, 96, 15, 7, 88, 97, 16
7, 7, 88, 97, 16, 8, 89, 98, 17
8, 8, 89, 98, 17, 9, 90, 99, 18
9, 10, 91, 100, 19, 11, 92, 101, 20
10, 11, 92, 101, 20, 12, 93, 102, 21
11, 12, 93, 102, 21, 13, 94, 103, 22
12, 13, 94, 103, 22, 14, 95, 104, 23
13, 14, 95, 104, 23, 15, 96, 105, 24
14, 15, 96, 105, 24, 16, 97, 106, 25
15, 16, 97, 106, 25, 17, 98, 107, 26
16, 17, 98, 107, 26, 18, 99, 108, 27
17, 19, 100, 109, 28, 20, 101, 110, 29
18, 20, 101, 110, 29, 21, 102, 111, 30
19, 21, 102, 111, 30, 22, 103, 112, 31
20, 22, 103, 112, 31, 23, 104, 113, 32
21, 23, 104, 113, 32, 24, 105, 114, 33
22, 24, 105, 114, 33, 25, 106, 115, 34
23, 25, 106, 115, 34, 26, 107, 116, 35
24, 26, 107, 116, 35, 27, 108, 117, 36
25, 28, 109, 118, 37, 29, 110, 119, 38
26, 29, 110, 119, 38, 30, 111, 120, 39
27, 30, 111, 120, 39, 31, 112, 121, 40
28, 31, 112, 121, 40, 32, 113, 122, 41
29, 32, 113, 122, 41, 33, 114, 123, 42
30, 33, 114, 123, 42, 34, 115, 124, 43
31, 34, 115, 124, 43, 35, 116, 125, 44
32, 35, 116, 125, 44, 36, 117, 126, 45
33, 37, 118, 127, 46, 38, 119, 128, 47
34, 38, 119, 128, 47, 39, 120, 129, 48
35, 39, 120, 129, 48, 40, 121, 130, 49
36, 40, 121, 130, 49, 41, 122, 131, 50
37, 41, 122, 131, 50, 42, 123, 132, 51
38, 42, 123, 132, 51, 43, 124, 133, 52
39, 43, 124, 133, 52, 44, 125, 134, 53
40, 44, 125, 134, 53, 45, 126, 135, 54
41, 46, 127, 136, 55, 47, 128, 137, 56
42, 47, 128, 137, 56, 48, 129, 138, 57
43, 48, 129, 138, 57, 49, 130, 139, 58
44, 49, 130, 139, 58, 50, 131, 140, 59
45, 50, 131, 140, 59, 51, 132, 141, 60
46, 51, 132, 141, 60, 52, 133, 142, 61
47, 52, 133, 142, 61, 53, 134, 143, 62
48, 53, 134, 143, 62, 54, 135, 144, 63
49, 55, 136, 145, 64, 56, 137, 146, 65
50, 56, 137, 146, 65, 57, 138, 147, 66
51, 57, 138, 147, 66, 58, 139, 148, 67
52, 58, 139, 148, 67, 59, 140, 149, 68
53, 59, 140, 149, 68, 60, 141, 150, 69
54, 60, 141, 150, 69, 61, 142, 151, 70
55, 61, 142, 151, 70, 62, 143, 152, 71
56, 62, 143, 152, 71, 63, 144, 153, 72
57, 64, 145, 154, 73, 65, 146, 155, 74
58, 65, 146, 155, 74, 66, 147, 156, 75
59, 66, 147, 156, 75, 67, 148, 157, 76
60, 67, 148, 157, 76, 68, 149, 158, 77
61, 68, 149, 158, 77, 69, 150, 159, 78
62, 69, 150, 159, 78, 70, 151, 160, 79
63, 70, 151, 160, 79, 71, 152, 161, 80
64, 71, 152, 161, 80, 72, 153, 162, 81
65, 82, 163, 172, 91, 83, 164, 173, 92
66, 83, 164, 173, 92, 84, 165, 174, 93
67, 84, 165, 174, 93, 85, 166, 175, 94
68, 85, 166, 175, 94, 86, 167, 176, 95
69, 86, 167, 176, 95, 87, 168, 177, 96
70, 87, 168, 177, 96, 88, 169, 178, 97
71, 88, 169, 178, 97, 89, 170, 179, 98
72, 89, 170, 179, 98, 90, 171, 180, 99
73, 91, 172, 181, 100, 92, 173, 182, 101
74, 92, 173, 182, 101, 93, 174, 183, 102
75, 93, 174, 183, 102, 94, 175, 184, 103
76, 94, 175, 184, 103, 95, 176, 185, 104
77, 95, 176, 185, 104, 96, 177, 186, 105
78, 96, 177, 186, 105, 97, 178, 187, 106
79, 97, 178, 187, 106, 98, 179, 188, 107
80, 98, 179, 188, 107, 99, 180, 189, 108
81, 100, 181, 190, 109, 101, 182, 191, 110
82, 101, 182, 191, 110, 102, 183, 192, 111
83, 102, 183, 192, 111, 103, 184, 193, 112
84, 103, 184, 193, 112, 104, 185, 194, 113
85, 104, 185, 194, 113, 105, 186, 195, 114
86, 105, 186, 195, 114, 106, 187, 196, 115
87, 106, 187, 196, 115, 107, 188, 197, 116
88, 107, 188, 197, 116, 108, 189, 198, 117
89, 109, 190, 199, 118, 110, 191, 200, 119
90, 110, 191, 200, 119, 111, 192, 201, 120
91, 111, 192, 201, 120, 112, 193, 202, 121
92, 112, 193, 202, 121, 113, 194, 203, 122
93, 113, 194, 203, 122, 114, 195, 204, 123
94, 114, 195, 204, 123, 115, 196, 205, 124
95, 115, 196, 205, 124, 116, 197, 206, 125
96, 116, 197, 206, 125, 117, 198, 207, 126
97, 118, 199, 208, 127, 119, 200, 209, 128
98, 119, 200, 209, 128, 120, 201, 210, 129
99, 120, 201, 210, 129, 121, 202, 211, 130
100, 121, 202, 211, 130, 122, 203, 212, 131
101, 122, 203, 212, 131, 123, 204, 213, 132
102, 123, 204, 213, 132, 124, 205, 214, 133
103, 124, 205, 214, 133, 125, 206, 215, 134
104, 125, 206, 215, 134, 126, 207, 216, 135
105, 127, 208, 217, 136, 128, 209, 218, 137
106, 128, 209, 218, 137, 129, 210, 219, 138
107, 129, 210, 219, 138, 130, 211, 220, 139
108, 130, 211, 220, 139, 131, 212, 221, 140
109, 131, 212, 221, 140, 132, 213, 222, 141
110, 132, 213, 222, 141, 133, 214, 223, 142
111, 133, 214, 223, 142, 134, 215, 224, 143
112, 134, 215, 224, 143, 135, 216, 225, 144
113, 136, 217, 226, 145, 137, 218, 227, 146
114, 137, 218, 227, 146, 138, 219, 228, 147
115, 138, 219, 228, 147, 139, 220, 229, 148
116, 139, 220, 229, 148, 140, 221, 230, 149
117, 140, 221, 230, 149, 141, 222, 231, 150
118, 141, 222, 231, 150, 142, 223, 232, 151
119, 142, 223, 232, 151, 143, 224, 233, 152
120, 143, 224, 233, 152, 144, 225, 234, 153
121, 145, 226, 235, 154, 146, 227, 236, 155
122, 146, 227, 236, 155, 147, 228, 237, 156
123, 147, 228, 237, 156, 148, 229, 238, 157
124, 148, 229, 238, 157, 149, 230, 239, 158
125, 149, 230, 239, 158, 150, 231, 240, 159
126, 150, 231, 240, 159, 151, 232, 241, 160
127, 151, 232, 241, 160, 152, 233, 242, 161
128, 152, 233, 242, 161, 153, 234, 243, 162
129, 163, 244, 253, 172, 164, 245, 254, 173
130, 164, 245, 254, 173, 165, 246, 255, 174
131, 165, 246, 255, 174, 166, 247, 256, 175
132, 166, 247, 256, 175, 167, 248, 257, 176
133, 167, 248, 257, 176, 168, 249, 258, 177
134, 168, 249, 258, 177, 169, 250, 259, 178
135, 169, 250, 259, 178, 170, 251, 260, 179
136, 170, 251, 260, 179, 171, 252, 261, 180
137, 172, 253, 262, 181, 173, 254, 263, 182
138, 173, 254, 263, 182, 174, 255, 264, 183
139, 174, 255, 264, 183, 175, 256, 265, 184
140, 175, 256, 265, 184, 176, 257, 266, 185
141, 176, 257, 266, 185, 177, 258, 267, 186
142, 177, 258, 267, 186, 178, 259, 268, 187
143, 178, 259, 268, 187, 179, 260, 269, 188
144, 179, 260, 269, 188, 180, 261, 270, 189
145, 181, 262, 271, 190, 182, 263, 272, 191
146, 182, 263, 272, 191, 183, 264, 273, 192
147, 183, 264, 273, 192, 184, 265, 274, 193
148, 184, 265, 274, 193, 185, 266, 275, 194
149, 185, 266, 275, 194, 186, 267, 276, 195
150, 186, 267, 276, 195, 187, 268, 277, 196
151, 187, 268, 277, 196, 188, 269, 278, 197
152, 188, 269, 278, 197, 189, 270, 279, 198
153, 190, 271, 280, 199, 191, 272, 281, 200
154, 191, 272, 281, 200, 192, 273, 282, 201
155, 192, 273, 282, 201, 193, 274, 283, 202
156, 193, 274, 283, 202, 194, 275, 284, 203
157, 194, 275, 284, 203, 195, 276, 285, 204
158, 195, 276, 285, 204, 196, 277, 286, 205
159, 196, 277, 286, 205, 197, 278, 287, 206
160, 197, 278, 287, 206, 198, 279, 288, 207
161, 199, 280, 289, 208, 200, 281, 290, 209
162, 200, 281, 290, 209, 201, 282, 291, 210
163, 201, 282, 291, 210, 202, 283, 292, 211
164, 202, 283, 292, 211, 203, 284, 293, 212
165, 203, 284, 293, 212, 204, 285, 294, 213
166, 204, 285, 294, 213, 205, 286, 295, 214
167, 205, 286, 295, 214, 206, 287, 296, 215
168, 206, 287, 296, 215, 207, 288, 297, 216
169, 208, 289, 298, 217, 209, 290, 299, 218
170, 209, 290, 299, 218, 210, 291, 300, 219
171, 210, 291, 300, 219, 211, 292, 301, 220
172, 211, 292, 301, 220, 212, 293, 302, 221
173, 212, 293, 302, 221, 213, 294, 303, 222
174, 213, 294, 303, 222, 214, 295, 304, 223
175, 214, 295, 304, 223, 215, 296, 305, 224
176, 215, 296, 305, 224, 216, 297, 306, 225
177, 217, 298, 307, 226, 218, 299, 308, 227
178, 218, 299, 308, 227, 219, 300, 309, 228
179, 219, 300, 309, 228, 220, 301, 310, 229
180, 220, 301, 310, 229, 221, 302, 311, 230
181, 221, 302, 311, 230, 222, 303, 312, 231
182, 222, 303, 312, 231, 223, 304, 313, 232
183, 223, 304, 313, 232, 224, 305, 314, 233
184, 224, 305, 314, 233, 225, 306, 315, 234
185, 226, 307, 316, 235, 227, 308, 317, 236
186, 227, 308, 317, 236, 228, 309, 318, 237
187, 228, 309, 318, 237, 229, 310, 319, 238
188, 229, 310, 319, 238, 230, 311, 320, 239
189, 230, 311, 320, 239, 231, 312, 321, 240
190, 231, 312, 321, 240, 232, 313, 322, 241
191, 232, 313, 322, 241, 233, 314, 323, 242
192, 233, 314, 323, 242, 234, 315, 324, 243
193, 244, 325, 334, 253, 245, 326, 335, 254
194, 245, 326, 335, 254, 246, 327, 336, 255
195, 246, 327, 336, 255, 247, 328, 337, 256
196, 247, 328, 337, 256, 248, 329, 338, 257
197, 248, 329, 338, 257, 249, 330, 339, 258
198, 249, 330, 339, 258, 250, 331, 340, 259
199, 250, 331, 340, 259, 251, 332, 341, 260
200, 251, 332, 341, 260, 252, 333, 342, 261
201, 253, 334, 343, 262, 254, 335, 344, 263
202, 254, 335, 344, 263, 255, 336, 345, 264
203, 255, 336, 345, 264, 256, 337, 346, 265
204, 256, 337, 346, 265, 257, 338, 347, 266
205, 257, 338, 347, 266, 258, 339, 348, 267
206, 258, 339, 348, 267, 259, 340, 349, 268
207, 259, 340, 349, 268, 260, 341, 350, 269
208, 260, 341, 350, 269, 261, 342, 351, 270
209, 262, 343, 352, 271, 263, 344, 353, 272
210, 263, 344, 353, 272, 264, 345, 354, 273
211, 264, 345, 354, 273, 265, 346, 355, 274
212, 265, 346, 355, 274, 266, 347, 356, 275
213, 266, 347, 356, 275, 267, 348, 357, 276
214, 267, 348, 357, 276, 268, 349, 358, 277
215, 268, 349, 358, 277, 269, 350, 359, 278
216, 269, 350, 359, 278, 270, 351, 360, 279
217, 271, 352, 361, 280, 272, 353, 362, 281
218, 272, 353, 362, 281, 273, 354, 363, 282
219, 273, 354, 363, 282, 274, 355, 364, 283
220, 274, 355, 364, 283, 275, 356, 365, 284
221, 275, 356, 365, 284, 276, 357, 366, 285
222, 276, 357, 366, 285, 277, 358, 367, 286
223, 277, 358, 367, 286, 278, 359, 368, 287
224, 278, 359, 368, 287, 279, 360, 369, 288
225, 280, 361, 370, 289, 281, 362, 371, 290
226, 281, 362, 371, 290, 282, 363, 372, 291
227, 282, 363, 372, 291, 283, 364, 373, 292
228, 283, 364, 373, 292, 284, 365, 374, 293
229, 284, 365, 374, 293, 285, 366, 375, 294
230, 285, 366, 375, 294, 286, 367, 376, 295
231, 286, 367, 376, 295, 287, 368, 377, 296
232, 287, 368, 377, 296, 288, 369, 378, 297
233, 289, 370, 379, 298, 290, 371, 380, 299
234, 290, 371, 380, 299, 291, 372, 381, 300
235, 291, 372, 381, 300, 292, 373, 382, 301
236, 292, 373, 382, 301, 293, 374, 383, 302
237, 293, 374, 383, 302, 294, 375, 384, 303
238, 294, 375, 384, 303, 295, 376, 385, 304
239, 295, 376, 385, 304, 296, 377, 386, 305
240, 296, 377, 386, 305, 297, 378, 387, 306
241, 298, 379, 388, 307, 299, 380, 389, 308
242, 299, 380, 389, 308, 300, 381, 390, 309
243, 300, 381, 390, 309, 301, 382, 391, 310
244, 301, 382, 391, 310, 302, 383, 392, 311
245, 302, 383, 392, 311, 303, 384, 393, 312
246, 303, 384, 393, 312, 304, 385, 394, 313
247, 304, 385, 394, 313, 305, 386, 395, 314
248, 305, 386, 395, 314, 306, 387, 396, 315
249, 307, 388, 397, 316, 308, 389, 398, 317
250, 308, 389, 398, 317, 309, 390, 399, 318
251, 309, 390, 399, 318, 310, 391, 400, 319
252, 310, 391, 400, 319, 311, 392, 401, 320
253, 311, 392, 401, 320, 312, 393, 402, 321
254, 312, 393, 402, 321, 313, 394, 403, 322
255, 313, 394, 403, 322, 314, 395, 404, 323
256, 314, 395, 404, 323, 315, 396, 405, 324
257, 325, 406, 415, 334, 326, 407, 416, 335
258, 326, 407, 416, 335, 327, 408, 417, 336
259, 327, 408, 417, 336, 328, 409, 418, 337
260, 328, 409, 418, 337, 329, 410, 419, 338
261, 329, 410, 419, 338, 330, 411, 420, 339
262, 330, 411, 420, 339, 331, 412, 421, 340
263, 331, 412, 421, 340, 332, 413, 422, 341
264, 332, 413, 422, 341, 333, 414, 423, 342
265, 334, 415, 424, 343, 335, 416, 425, 344
266, 335, 416, 425, 344, 336, 417, 426, 345
267, 336, 417, 426, 345, 337, 418, 427, 346
268, 337, 418, 427, 346, 338, 419, 428, 347
269, 338, 419, 428, 347, 339, 420, 429, 348
270, 339, 420, 429, 348, 340, 421, 430, 349
271, 340, 421, 430, 349, 341, 422, 431, 350
272, 341, 422, 431, 350, 342, 423, 432, 351
273, 343, 424, 433, 352, 344, 425, 434, 353
274, 344, 425, 434, 353, 345, 426, 435, 354
275, 345, 426, 435, 354, 346, 427, 436, 355
276, 346, 427, 436, 355, 347, 428, 437, 356
277, 347, 428, 437, 356, 348, 429, 438, 357
278, 348, 429, 438, 357, 349, 430, 439, 358
279, 349, 430, 439, 358, 350, 431, 440, 359
280, 350, 431, 440, 359, 351, 432, 441, 360
281, 352, 433, 442, 361, 353, 434, 443, 362
282, 353, 434, 443, 362, 354, 435, 444, 363
283, 354, 435, 444, 363, 355, 436, 445, 364
284, 355, 436, 445, 364, 356, 437, 446, 365
285, 356, 437, 446, 365, 357, 438, 447, 366
286, 357, 438, 447, 366, 358, 439, 448, 367
287, 358, 439, 448, 367, 359, 440, 449, 368
288, 359, 440, 449, 368, 360, 441, 450, 369
289, 361, 442, 451, 370, 362, 443, 452, 371
290, 362, 443, 452, 371, 363, 444, 453, 372
291, 363, 444, 453, 372, 364, 445, 454, 373
292, 364, 445, 454, 373, 365, 446, 455, 374
293, 365, 446, 455, 374, 366, 447, 456, 375
294, 366, 447, 456, 375, 367, 448, 457, 376
295, 367, 448, 457, 376, 368, 449, 458, 377
296, 368, 449, 458, 377, 369, 450, 459, 378
297, 370, 451, 460, 379, 371, 452, 461, 380
298, 371, 452, 461, 380, 372, 453, 462, 381
299, 372, 453, 462, 381, 373, 454, 463, 382
300, 373, 454, 463, 382, 374, 455, 464, 383
301, 374, 455, 464, 383, 375, 456, 465, 384
302, 375, 456, 465, 384, 376, 457, 466, 385
303, 376, 457, 466, 385, 377, 458, 467, 386
304, 377, 458, 467, 386, 378, 459, 468, 387
305, 379, 460, 469, 388, 380, 461, 470, 389
306, 380, 461, 470, 389, 381, 462, 471, 390
307, 381, 462, 471, 390, 382, 463, 472, 391
308, 382, 463, 472, 391, 383, 464, 473, 392
309, 383, 464, 473, 392, 384, 465, 474, 393
310, 384, 465, 474, 393, 385, 466, 475, 394
311, 385, 466, 475, 394, 386, 467, 476, 395
312, 386, 467, 476, 395, 387, 468, 477, 396
313, 388, 469, 478, 397, 389, 470, 479, 398
314, 389, 470, 479, 398, 390, 471, 480, 399
315, 390, 471, 480, 399, 391, 472, 481, 400
316, 391, 472, 481, 400, 392, 473, 482, 401
317, 392, 473, 482, 401, 393, 474, 483, 402
318, 393, 474, 483, 402, 394, 475, 484, 403
319, 394, 475, 484, 403, 395, 476, 485, 404
320, 395, 476, 485, 404, 396, 477, 486, 405
321, 406, 487, 496, 415, 407, 488, 497, 416
322, 407, 488, 497, 416, 408, 489, 498, 417
323, 408, 489, 498, 417, 409, 490, 499, 418
324, 409, 490, 499, 418, 410, 491, 500, 419
325, 410, 491, 500, 419, 411, 492, 501, 420
326, 411, 492, 501, 420, 412, 493, 502, 421
327, 412, 493, 502, 421, 413, 494, 503, 422
328, 413, 494, 503, 422, 414, 495, 504, 423
329, 415, 496, 505, 424, 416, 497, 506, 425
330, 416, 497, 506, 425, 417, 498, 507, 426
331, 417, 498, 507, 426, 418, 499, 508, 427
332, 418, 499, 508, 427, 419, 500, 509, 428
333, 419, 500, 509, 428, 420, 501, 510, 429
334, 420, 501, 510, 429, 421, 502, 511, 430
335, 421, 502, 511, 430, 422, 503, 512, 431
336, 422, 503, 512, 431, 423, 504, 513, 432
337, 424, 505, 514, 433, 425, 506, 515, 434
338, 425, 506, 515, 434, 426, 507, 516, 435
339, 426, 507, 516, 435, 427, 508, 517, 436
340, 427, 508, 517, 436, 428, 509, 518, 437
341, 428, 509, 518, 437, 429, 510, 519, 438
342, 429, 510, 519, 438, 430, 511, 520, 439
343, 430, 511, 520, 439, 431, 512, 521, 440
344, 431, 512, 521, 440, 432, 513, 522, 441
345, 433, 514, 523, 442, 434, 515, 524, 443
346, 434, 515, 524, 443, 435, 516, 525, 444
347, 435, 516, 525, 444, 436, 517, 526, 445
348, 436, 517, 526, 445, 437, 518, 527, 446
349, 437, 518, 527, 446, 438, 519, 528, 447
350, 438, 519, 528, 447, 439, 520, 529, 448
351, 439, 520, 529, 448, 440, 521, 530, 449
352, 440, 521, 530, 449, 441, 522, 531, 450
353, 442, 523, 532, 451, 443, 524, 533, 452
354, 443, 524, 533, 452, 444, 525, 534, 453
355, 444, 525, 534, 453, 445, 526, 535, 454
356, 445, 526, 535, 454, 446, 527, 536, 455
357, 446, 527, 536, 455, 447, 528, 537, 456
358, 447, 528, 537, 456, 448, 529, 538, 457
359, 448, 529, 538, 457, 449, 530, 539, 458
360, 449, 530, 539, 458, 450, 531, 540, 459
361, 451, 532, 541, 460, 452, 533, 542, 461
362, 452, 533, 542, 461, 453, 534, 543, 462
363, 453, 534, 543, 462, 454, 535, 544, 463
364, 454, 535, 544, 463, 455, 536, 545, 464
365, 455, 536, 545, 464, 456, 537, 546, 465
366, 456, 537, 546, 465, 457, 538, 547, 466
367, 457, 538, 547, 466, 458, 539, 548, 467
368, 458, 539, 548, 467, 459, 540, 549, 468
369, 460, 541, 550, 469, 461, 542, 551, 470
370, 461, 542, 551, 470, 462, 543, 552, 471
371, 462, 543, 552, 471, 463, 544, 553, 472
372, 463, 544, 553, 472, 464, 545, 554, 473
373, 464, 545, 554, 473, 465, 546, 555, 474
374, 465, 546, 555, 474, 466, 547, 556, 475
375, 466, 547, 556, 475, 467, 548, 557, 476
376, 467, 548, 557, 476, 468, 549, 558, 477
377, 469, 550, 559, 478, 470, 551, 560, 479
378, 470, 551, 560, 479, 471, 552, 561, 480
379, 471, 552, 561, 480, 472, 553, 562, 481
380, 472, 553, 562, 481, 473, 554, 563, 482
381, 473, 554, 563, 482, 474, 555, 564, 483
382, 474, 555, 564, 483, 475, 556, 565, 484
383, 475, 556, 565, 484, 476, 557, 566, 485
384, 476, 557, 566, 485, 477, 558, 567, 486
385, 487, 568, 577, 496, 488, 569, 578, 497
386, 488, 569, 578, 497, 489, 570, 579, 498
387, 489, 570, 579, 498, 490, 571, 580, 499
388, 490, 571, 580, 499, 491, 572, 581, 500
389, 491, 572, 581, 500, 492, 573, 582, 501
390, 492, 573, 582, 501, 493, 574, 583, 502
391, 493, 574, 583, 502, 494, 575, 584, 503
392, 494, 575, 584, 503, 495, 576, 585, 504
393, 496, 577, 586, 505, 497, 578, 587, 506
394, 497, 578, 587, 506, 498, 579, 588, 507
395, 498, 579, 588, 507, 499, 580, 589, 508
396, 499, 580, 589, 508, 500, 581, 590, 509
397, 500, 581, 590, 509, 501, 582, 591, 510
398, 501, 582, 591, 510, 502, 583, 592, 511
399, 502, 583, 592, 511, 503, 584, 593, 512
400, 503, 584, 593, 512, 504, 585, 594, 513
401, 505, 586, 595, 514, 506, 587, 596, 515
402, 506, 587, 596, 515, 507, 588, 597, 516
403, 507, 588, 597, 516, 508, 589, 598, 517
404, 508, 589, 598, 517, 509, 590, 599, 518
405, 509, 590, 599, 518, 510, 591, 600, 519
406, 510, 591, 600, 519, 511, 592, 601, 520
407, 511, 592, 601, 520, 512, 593, 602, 521
408, 512, 593, 602, 521, 513, 594, 603, 522
409, 514, 595, 604, 523, 515, 596, 605, 524
410, 515, 596, 605, 524, 516, 597, 606, 525
411, 516, 597, 606, 525, 517, 598, 607, 526
412, 517, 598, 607, 526, 518, 599, 608, 527
413, 518, 599, 608, 527, 519, 600, 609, 528
414, 519, 600, 609, 528, 520, 601, 610, 529
415, 520, 601, 610, 529, 521, 602, 611, 530
416, 521, 602, 611, 530, 522, 603, 612, 531
417, 523, 604, 613, 532, 524, 605, 614, 533
418, 524, 605, 614, 533, 525, 606, 615, 534
419, 525, 606, 615, 534, 526, 607, 616, 535
420, 526, 607, 616, 535, 527, 608, 617, 536
421, 527, 608, 617, 536, 528, 609, 618, 537
422, 528, 609, 618, 537, 529, 610, 619, 538
423, 529, 610, 619, 538, 530, 611, 620, 539
424, 530, 611, 620, 539, 531, 612, 621, 540
425, 532, 613, 622, 541, 533, 614, 623, 542
426, 533, 614, 623, 542, 534, 615, 624, 543
427, 534, 615, 624, 543, 535, 616, 625, 544
428, 535, 616, 625, 544, 536, 617, 626, 545
429, 536, 617, 626, 545, 537, 618, 627, 546
430, 537, 618, 627, 546, 538, 619, 628, 547
431, 538, 619, 628, 547, 539, 620, 629, 548
432, 539, 620, 629, 548, 540, 621, 630, 549
433, 541, 622, 631, 550, 542, 623, 632, 551
434, 542, 623, 632, 551, 543, 624, 633, 552
435, 543, 624, 633, 552, 544, 625, 634, 553
436, 544, 625, 634, 553, 545, 626, 635, 554
437, 545, 626, 635, 554, 546, 627, 636, 555
438, 546, 627, 636, 555, 547, 628, 637, 556
439, 547, 628, 637, 556, 548, 629, 638, 557
440, 548, 629, 638, 557, 549, 630, 639, 558
441, 550, 631, 640, 559, 551, 632, 641, 560
442, 551, 632, 641, 560, 552, 633, 642, 561
443, 552, 633, 642, 561, 553, 634, 643, 562
444, 553, 634, 643, 562, 554, 635, 644, 563
445, 554, 635, 644, 563, 555, 636, 645, 564
446, 555, 636, 645, 564, 556, 637, 646, 565
447, 556, 637, 646, 565, 557, 638, 647, 566
448, 557, 638, 647, 566, 558, 639, 648, 567
449, 568, 649, 658, 577, 569, 650, 659, 578
450, 569, 650, 659, 578, 570, 651, 660, 579
451, 570, 651, 660, 579, 571, 652, 661, 580
452, 571, 652, 661, 580, 572, 653, 662, 581
453, 572, 653, 662, 581, 573, 654, 663, 582
454, 573, 654, 663, 582, 574, 655, 664, 583
455, 574, 655, 664, 583, 575, 656, 665, 584
456, 575, 656, 665, 584, 576, 657, 666, 585
457, 577, 658, 667, 586, 578, 659, 668, 587
458, 578, 659, 668, 587, 579, 660, 669, 588
459, 579, 660, 669, 588, 580, 661, 670, 589
460, 580, 661, 670, 589, 581, 662, 671, 590
461, 581, 662, 671, 590, 582, 663, 672, 591
462, 582, 663, 672, 591, 583, 664, 673, 592
463, 583, 664, 673, 592, 584, 665, 674, 593
464, 584, 665, 674, 593, 585, 666, 675, 594
465, 586, 667, 676, 595, 587, 668, 677, 596
466, 587, 668, 677, 596, 588, 669, 678, 597
467, 588, 669, 678, 597, 589, 670, 679, 598
468, 589, 670, 679, 598, 590, 671, 680, 599
469, 590, 671, 680, 599, 591, 672, 681, 600
470, 591, 672, 681, 600, 592, 673, 682, 601
471, 592, 673, 682, 601, 593, 674, 683, 602
472, 593, 674, 683, 602, 594, 675, 684, 603
473, 595, 676, 685, 604, 596, 677, 686, 605
474, 596, 677, 686, 605, 597, 678, 687, 606
475, 597, 678, 687, 606, 598, 679, 688, 607
476, 598, 679, 688, 607, 599, 680, 689, 608
477, 599, 680, 689, 608, 600, 681, 690, 609
478, 600, 681, 690, 609, 601, 682, 691, 610
479, 601, 682, 691, 610, 602, 683, 692, 611
480, 602, 683, 692, 611, 603, 684, 693, 612
481, 604, 685, 694, 613, 605, 686, 695, 614
482, 605, 686, 695, 614, 606, 687, 696, 615
483, 606, 687, 696, 615, 607, 688, 697, 616
484, 607, 688, 697, 616, 608, 689, 698, 617
485, 608, 689, 698, 617, 609, 690, 699, 618
486, 609, 690, 699, 618, 610, 691, 700, 619
487, 610, 691, 700, 619, 611, 692, 701, 620
488, 611, 692, 701, 620, 612, 693, 702, 621
489, 613, 694, 703, 622, 614, 695, 704, 623
490, 614, 695, 704, 623, 615, 696, 705, 624
491, 615, 696, 705, 624, 616, 697, 706, 625
492, 616, 697, 706, 625, 617, 698, 707, 626
493, 617, 698, 707, 626, 618, 699, 708, 627
494, 618, 699, 708, 627, 619, 700, 709, 628
495, 619, 700, 709, 628, 620, 701, 710, 629
496, 620, 701, 710, 629, 621, 702, 711, 630
497, 622, 703, 712, 631, 623, 704, 713, 632
498, 623, 704, 713, 632, 624, 705, 714, 633
499, 624, 705, 714, 633, 625, 706, 715, 634
500, 625, 706, 715, 634, 626, 707, 716, 635
501, 626, 707, 716, 635, 627, 708, 717, 636
502, 627, 708, 717, 636, 628, 709, 718, 637
503, 628, 709, 718, 637, 629, 710, 719, 638
504, 629, 710, 719, 638, 630, 711, 720, 639
505, 631, 712, 721, 640, 632, 713, 722, 641
506, 632, 713, 722, 641, 633, 714, 723, 642
507, 633, 714, 723, 642, 634, 715, 724, 643
508, 634, 715, 724, 643, 635, 716, 725, 644
509, 635, 716, 725, 644, 636, 717, 726, 645
510, 636, 717, 726, 645, 637, 718, 727, 646
511, 637, 718, 727, 646, 638, 719, 728, 647
512, 638, 719, 728, 647, 639, 720, 729, 648
513, 649, 730, 739, 658, 650, 731, 740, 659
514, 650, 731, 740, 659, 651, 732, 741, 660
515, 651, 732, 741, 660, 652, 733, 742, 661
516, 652, 733, 742, 661, 653, 734, 743, 662
517, 653, 734, 743, 662, 654, 735, 744, 663
518, 654, 735, 744, 663, 655, 736, 745, 664
519, 655, 736, 745, 664, 656, 737, 746, 665
520, 656, 737, 746, 665, 657, 738, 747, 666
521, 658, 739, 748, 667, 659, 740, 749, 668
522, 659, 740, 749, 668, 660, 741, 750, 669
523, 660, 741, 750, 669, 661, 742, 751, 670
524, 661, 742, 751, 670, 662, 743, 752, 671
525, 662, 743, 752, 671, 663, 744, 753, 672
526, 663, 744, 753, 672, 664, 745, 754, 673
527, 664, 745, 754, 673, 665, 746, 755, 674
528, 665, 746, 755, 674, 666, 747, 756, 675
529, 667, 748, 757, 676, 668, 749, 758, 677
530, 668, 749, 758, 677, 669, 750, 759, 678
531, 669, 750, 759, 678, 670, 751, 760, 679
532, 670, 751, 760, 679, 671, 752, 761, 680
533, 671, 752, 761, 680, 672, 753, 762, 681
534, 672, 753, 762, 681, 673, 754, 763, 682
535, 673, 754, 763, 682, 674, 755, 764, 683
536, 674, 755, 764, 683, 675, 756, 765, 684
537, 676, 757, 766, 685, 677, 758, 767, 686
538, 677, 758, 767, 686, 678, 759, 768, 687
539, 678, 759, 768, 687, 679, 760, 769, 688
540, 679, 760, 769, 688, 680, 761, 770, 689
541, 680, 761, 770, 689, 681, 762, 771, 690
542, 681, 762, 771, 690, 682, 763, 772, 691
543, 682, 763, 772, 691, 683, 764, 773, 692
544, 683, 764, 773, 692, 684, 765, 774, 693
545, 685, 766, 775, 694, 686, 767, 776, 695
546, 686, 767, 776, 695, 687, 768, 777, 696
547, 687, 768, 777, 696, 688, 769, 778, 697
548, 688, 769, 778, 697, 689, 770, 779, 698
549, 689, 770, 779, 698, 690, 771, 780, 699
550, 690, 771, 780, 699, 691, 772, 781, 700
551, 691, 772, 781, 700, 692, 773, 782, 701
552, 692, 773, 782, 701, 693, 774, 783, 702
553, 694, 775, 784, 703, 695, 776, 785, 704
554, 695, 776, 785, 704, 696, 777, 786, 705
555, 696, 777, 786, 705, 697, 778, 787, 706
556, 697, 778, 787, 706, 698, 779, 788, 707
557, 698, 779, 788, 707, 699, 780, 789, 708
558, 699, 780, 789, 708, 700, 781, 790, 709
559, 700, 781, 790, 709, 701, 782, 791, 710
560, 701, 782, 791, 710, 702, 783, 792, 711
561, 703, 784, 793, 712, 704, 785, 794, 713
562, 704, 785, 794, 713, 705, 786, 795, 714
563, 705, 786, 795, 714, 706, 787, 796, 715
564, 706, 787, 796, 715, 707, 788, 797, 716
565, 707, 788, 797, 716, 708, 789, 798, 717
566, 708, 789, 798, 717, 709, 790, 799, 718
567, 709, 790, 799, 718, 710, 791, 800, 719
568, 710, 791, 800, 719, 711, 792, 801, 720
569, 712, 793, 802, 721, 713, 794, 803, 722
570, 713, 794, 803, 722, 714, 795, 804, 723
571, 714, 795, 804, 723, 715, 796, 805, 724
572, 715, 796, 805, 724, 716, 797, 806, 725
573, 716, 797, 806, 725, 717, 798, 807, 726
574, 717, 798, 807, 726, 718, 799, 808, 727
575, 718, 799, 808, 727, 719, 800, 809, 728
576, 719, 800, 809, 728, 720, 801, 810, 729
577, 730, 811, 820, 739, 731, 812, 821, 740
578, 731, 812, 821, 740, 732, 813, 822, 741
579, 732, 813, 822, 741, 733, 814, 823, 742
580, 733, 814, 823, 742, 734, 815, 824, 743
581, 734, 815, 824, 743, 735, 816, 825, 744
582, 735, 816, 825, 744, 736, 817, 826, 745
583, 736, 817, 826, 745, 737, 818, 827, 746
584, 737, 818, 827, 746, 738, 819, 828, 747
585, 739, 820, 829, 748, 740, 821, 830, 749
586, 740, 821, 830, 749, 741, 822, 831, 750
587, 741, 822, 831, 750, 742, 823, 832, 751
588, 742, 823, 832, 751, 743, 824, 833, 752
589, 743, 824, 833, 752, 744, 825, 834, 753
590, 744, 825, 834, 753, 745, 826, 835, 754
591, 745, 826, 835, 754, 746, 827, 836, 755
592, 746, 827, 836, 755, 747, 828, 837, 756
593, 748, 829, 838, 757, 749, 830, 839, 758
594, 749, 830, 839, 758, 750, 831, 840, 759
595, 750, 831, 840, 759, 751, 832, 841, 760
596, 751, 832, 841, 760, 752, 833, 842, 761
597, 752, 833, 842, 761, 753, 834, 843, 762
598, 753, 834, 843, 762, 754, 835, 844, 763
599, 754, 835, 844, 763, 755, 836, 845, 764
600, 755, 836, 845, 764, 756, 837, 846, 765
601, 757, 838, 847, 766, 758, 839, 848, 767
602, 758, 839, 848, 767, 759, 840, 849, 768
603, 759, 840, 849, 768, 760, 841, 850, 769
604, 760, 841, 850, 769, 761, 842, 851, 770
605, 761, 842, 851, 770, 762, 843, 852, 771
606, 762, 843, 852, 771, 763, 844, 853, 772
607, 763, 844, 853, 772, 764, 845, 854, 773
608, 764, 845, 854, 773, 765, 846, 855, 774
609, 766, 847, 856, 775, 767, 848, 857, 776
610, 767, 848, 857, 776, 768, 849, 858, 777
611, 768, 849, 858, 777, 769, 850, 859, 778
612, 769, 850, 859, 778, 770, 851, 860, 779
613, 770, 851, 860, 779, 771, 852, 861, 780
614, 771, 852, 861, 780, 772, 853, 862, 781
615, 772, 853, 862, 781, 773, 854, 863, 782
616, 773, 854, 863, 782, 774, 855, 864, 783
617, 775, 856, 865, 784, 776, 857, 866, 785
618, 776, 857, 866, 785, 777, 858, 867, 786
619, 777, 858, 867, 786, 778, 859, 868, 787
620, 778, 859, 868, 787, 779, 860, 869, 788
621, 779, 860, 869, 788, 780, 861, 870, 789
622, 780, 861, 870, 789, 781, 862, 871, 790
623, 781, 862, 871, 790, 782, 863, 872, 791
624, 782, 863, 872, 791, 783, 864, 873, 792
625, 784, 865, 874, 793, 785, 866, 875, 794
626, 785, 866, 875, 794, 786, 867, 876, 795
627, 786, 867, 876, 795, 787, 868, 877, 796
628, 787, 868, 877, 796, 788, 869, 878, 797
629, 788, 869, 878, 797, 789, 870, 879, 798
630, 789, 870, 879, 798, 790, 871, 880, 799
631, 790, 871, 880, 799, 791, 872, 881, 800
632, 791, 872, 881, 800, 792, 873, 882, 801
633, 793, 874, 883, 802, 794, 875, 884, 803
634, 794, 875, 884, 803, 795, 876, 885, 804
635, 795, 876, 885, 804, 796, 877, 886, 805
636, 796, 877, 886, 805, 797, 878, 887, 806
637, 797, 878, 887, 806, 798, 879, 888, 807
638, 798, 879, 888, 807, 799, 880, 889, 808
639, 799, 880, 889, 808, 800, 881, 890, 809
640, 800, 881, 890, 809, 801, 882, 891, 810
641, 811, 892, 901, 820, 812, 893, 902, 821
642, 812, 893, 902, 821, 813, 894, 903, 822
643, 813, 894, 903, 822, 814, 895, 904, 823
644, 814, 895, 904, 823, 815, 896, 905, 824
645, 815, 896, 905, 824, 816, 897, 906, 825
646, 816, 897, 906, 825, 817, 898, 907, 826
647, 817, 898, 907, 826, 818, 899, 908, 827
648, 818, 899, 908, 827, 819, 900, 909, 828
649, 820, 901, 910, 829, 821, 902, 911, 830
650, 821, 902, 911, 830, 822, 903, 912, 831
651, 822, 903, 912, 831, 823, 904, 913, 832
652, 823, 904, 913, 832, 824, 905, 914, 833
653, 824, 905, 914, 833, 825, 906, 915, 834
654, 825, 906, 915, 834, 826, 907, 916, 835
655, 826, 907, 916, 835, 827, 908, 917, 836
656, 827, 908, 917, 836, 828, 909, 918, 837
657, 829, 910, 919, 838, 830, 911, 920, 839
658, 830, 911, 920, 839, 831, 912, 921, 840
659, 831, 912, 921, 840, 832, 913, 922, 841
660, 832, 913, 922, 841, 833, 914, 923, 842
661, 833, 914, 923, 842, 834, 915, 924, 843
662, 834, 915, 924, 843, 835, 916, 925, 844
663, 835, 916, 925, 844, 836, 917, 926, 845
664, 836, 917, 926, 845, 837, 918, 927, 846
665, 838, 919, 928, 847, 839, 920, 929, 848
666, 839, 920, 929, 848, 840, 921, 930, 849
667, 840, 921, 930, 849, 841, 922, 931, 850
668, 841, 922, 931, 850, 842, 923, 932, 851
669, 842, 923, 932, 851, 843, 924, 933, 852
670, 843, 924, 933, 852, 844, 925, 934, 853
671, 844, 925, 934, 853, 845, 926, 935, 854
672, 845, 926, 935, 854, 846, 927, 936, 855
673, 847, 928, 937, 856, 848, 929, 938, 857
674, 848, 929, 938, 857, 849, 930, 939, 858
675, 849, 930, 939, 858, 850, 931, 940, 859
676, 850, 931, 940, 859, 851, 932, 941, 860
677, 851, 932, 941, 860, 852, 933, 942, 861
678, 852, 933, 942, 861, 853, 934, 943, 862
679, 853, 934, 943, 862, 854, 935, 944, 863
680, 854, 935, 944, 863, 855, 936, 945, 864
681, 856, 937, 946, 865, 857, 938, 947, 866
682, 857, 938, 947, 866, 858, 939, 948, 867
683, 858, 939, 948, 867, 859, 940, 949, 868
684, 859, 940, 949, 868, 860, 941, 950, 869
685, 860, 941, 950, 869, 861, 942, 951, 870
686, 861, 942, 951, 870, 862, 943, 952, 871
687, 862, 943, 952, 871, 863, 944, 953, 872
688, 863, 944, 953, 872, 864, 945, 954, 873
689, 865, 946, 955, 874, 866, 947, 956, 875
690, 866, 947, 956, 875, 867, 948, 957, 876
691, 867, 948, 957, 876, 868, 949, 958, 877
692, 868, 949, 958, 877, 869, 950, 959, 878
693, 869, 950, 959, 878, 870, 951, 960, 879
694, 870, 951, 960, 879, 871, 952, 961, 880
695, 871, 952, 961, 880, 872, 953, 962, 881
696, 872, 953, 962, 881, 873, 954, 963, 882
697, 874, 955, 964, 883, 875, 956, 965, 884
698, 875, 956, 965, 884, 876, 957, 966, 885
699, 876, 957, 966, 885, 877, 958, 967, 886
700, 877, 958, 967, 886, 878, 959, 968, 887
701, 878, 959, 968, 887, 879, 960, 969, 888
702, 879, 960, 969, 888, 880, 961, 970, 889
703, 880, 961, 970, 889, 881, 962, 971, 890
704, 881, 962, 971, 890, 882, 963, 972, 891
705, 892, 973, 982, 901, 893, 974, 983, 902
706, 893, 974, 983, 902, 894, 975, 984, 903
707, 894, 975, 984, 903, 895, 976, 985, 904
708, 895, 976, 985, 904, 896, 977, 986, 905
709, 896, 977, 986, 905, 897, 978, 987, 906
710, 897, 978, 987, 906, 898, 979, 988, 907
711, 898, 979, 988, 907, 899, 980, 989, 908
712, 899, 980, 989, 908, 900, 981, 990, 909
713, 901, 982, 991, 910, 902, 983, 992, 911
714, 902, 983, 992, 911, 903, 984, 993, 912
715, 903, 984, 993, 912, 904, 985, 994, 913
716, 904, 985, 994, 913, 905, 986, 995, 914
717, 905, 986, 995, 914, 906, 987, 996, 915
718, 906, 987, 996, 915, 907, 988, 997, 916
719, 907, 988, 997, 916, 908, 989, 998, 917
720, 908, 989, 998, 917, 909, 990, 999, 918
721, 910, 991, 1000, 919, 911, 992, 1001, 920
722, 911, 992, 1001, 920, 912, 993, 1002, 921
723, 912, 993, 1002, 921, 913, 994, 1003, 922
724, 913, 994, 1003, 922, 914, 995, 1004, 923
725, 914, 995, 1004, 923, 915, 996, 1005, 924
726, 915, 996, 1005, 924, 916, 997, 1006, 925
727, 916, 997, 1006, 925, 917, 998, 1007, 926
728, 917, 998, 1007, 926, 918, 999, 1008, 927
729, 919, 1000, 1009, 928, 920, 1001, 1010, 929
730, 920, 1001, 1010, 929, 921, 1002, 1011, 930
731, 921, 1002, 1011, 930, 922, 1003, 1012, 931
732, 922, 1003, 1012, 931, 923, 1004, 1013, 932
733, 923, 1004, 1013, 932, 924, 1005, 1014, 933
734, 924, 1005, 1014, 933, 925, 1006, 1015, 934
735, 925, 1006, 1015, 934, 926, 1007, 1016, 935
736, 926, 1007, 1016, 935, 927, 1008, 1017, 936
737, 928, 1009, 1018, 937, 929, 1010, 1019, 938
738, 929, 1010, 1019, 938, 930, 1011, 1020, 939
739, 930, 1011, 1020, 939, 931, 1012, 1021, 940
740, 931, 1012, 1021, 940, 932, 1013, 1022, 941
741, 932, 1013, 1022, 941, 933, 1014, 1023, 942
742, 933, 1014, 1023, 942, 934, 1015, 1024, 943
743, 934, 1015, 1024, 943, 935, 1016, 1025, 944
744, 935, 1016, 1025, 944, 936, 1017, 1026, 945
745, 937, 1018, 1027, 946, 938, 1019, 1028, 947
746, 938, 1019, 1028, 947, 939, 1020, 1029, 948
747, 939, 1020, 1029, 948, 940, 1021, 1030, 949
748, 940, 1021, 1030, 949, 941, 1022, 1031, 950
749, 941, 1022, 1031, 950, 942, 1023, 1032, 951
750, 942, 1023, 1032, 951, 943, 1024, 1033, 952
751, 943, 1024, 1033, 952, 944, 1025, 1034, 953
752, 944, 1025, 1034, 953, 945, 1026, 1035, 954
753, 946, 1027, 1036, 955, 947, 1028, 1037, 956
754, 947, 1028, 1037, 956, 948, 1029, 1038, 957
755, 948, 1029, 1038, 957, 949, 1030, 1039, 958
756, 949, 1030, 1039, 958, 950, 1031, 1040, 959
757, 950, 1031, 1040, 959, 951, 1032, 1041, 960
758, 951, 1032, 1041, 960, 952, 1033, 1042, 961
759, 952, 1033, 1042, 961, 953, 1034, 1043, 962
760, 953, 1034, 1043, 962, 954, 1035, 1044, 963
761, 955, 1036, 1045, 964, 956, 1037, 1046, 965
762, 956, 1037, 1046, 965, 957, 1038, 1047, 966
763, 957, 1038, 1047, 966, 958, 1039, 1048, 967
764, 958, 1039, 1048, 967, 959, 1040, 1049, 968
765, 959, 1040, 1049, 968, 960, 1041, 1050, 969
766, 960, 1041, 1050, 969, 961, 1042, 1051, 970
767, 961, 1042, 1051, 970, 962, 1043, 1052, 971
768, 962, 1043, 1052, 971, 963, 1044, 1053, 972
769, 973, 1054, 1063, 982, 974, 1055, 1064, 983
770, 974, 1055, 1064, 983, 975, 1056, 1065, 984
771, 975, 1056, 1065, 984, 976, 1057, 1066, 985
772, 976, 1057, 1066, 985, 977, 1058, 1067, 986
773, 977, 1058, 1067, 986, 978, 1059, 1068, 987
774, 978, 1059, 1068, 987, 979, 1060, 1069, 988
775, 979, 1060, 1069, 988, 980, 1061, 1070, 989
776, 980, 1061, 1070, 989, 981, 1062, 1071, 990
777, 982, 1063, 1072, 991, 983, 1064, 1073, 992
778, 983, 1064, 1073, 992, 984, 1065, 1074, 993
779, 984, 1065, 1074, 993, 985, 1066, 1075, 994
780, 985, 1066, 1075, 994, 986, 1067, 1076, 995
781, 986, 1067, 1076, 995, 987, 1068, 1077, 996
782, 987, 1068, 1077, 996, 988, 1069, 1078, 997
783, 988, 1069, 1078, 997, 989, 1070, 1079, 998
784, 989, 1070, 1079, 998, 990, 1071, 1080, 999
785, 991, 1072, 1081, 1000, 992, 1073, 1082, 1001
786, 992, 1073, 1082, 1001, 993, 1074, 1083, 1002
787, 993, 1074, 1083, 1002, 994, 1075, 1084, 1003
788, 994, 1075, 1084, 1003, 995, 1076, 1085, 1004
789, 995, 1076, 1085, 1004, 996, 1077, 1086, 1005
790, 996, 1077, 1086, 1005, 997, 1078, 1087, 1006
791, 997, 1078, 1087, 1006, 998, 1079, 1088, 1007
792, 998, 1079, 1088, 1007, 999, 1080, 1089, 1008
793, 1000, 1081, 1090, 1009, 1001, 1082, 1091, 1010
794, 1001, 1082, 1091, 1010, 1002, 1083, 1092, 1011
795, 1002, 1083, 1092, 1011, 1003, 1084, 1093, 1012
796, 1003, 1084, 1093, 1012, 1004, 1085, 1094, 1013
797, 1004, 1085, 1094, 1013, 1005, 1086, 1095, 1014
798, 1005, 1086, 1095, 1014, 1006, 1087, 1096, 1015
799, 1006, 1087, 1096, 1015, 1007, 1088, 1097, 1016
800, 1007, 1088, 1097, 1016, 1008, 1089, 1098, 1017
801, 1009, 1090, 1099, 1018, 1010, 1091, 1100, 1019
802, 1010, 1091, 1100, 1019, 1011, 1092, 1101, 1020
803, 1011, 1092, 1101, 1020, 1012, 1093, 1102, 1021
804, 1012, 1093, 1102, 1021, 1013, 1094, 1103, 1022
805, 1013, 1094, 1103, 1022, 1014, 1095, 1104, 1023
806, 1014, 1095, 1104, 1023, 1015, 1096, 1105, 1024
807, 1015, 1096, 1105, 1024, 1016, 1097, 1106, 1025
808, 1016, 1097, 1106, 1025, 1017, 1098, 1107, 1026
809, 1018, 1099, 1108, 1027, 1019, 1100, 1109, 1028
810, 1019, 1100, 1109, 1028, 1020, 1101, 1110, 1029
811, 1020, 1101, 1110, 1029, 1021, 1102, 1111, 1030
812, 1021, 1102, 1111, 1030, 1022, 1103, 1112, 1031
813, 1022, 1103, 1112, 1031, 1023, 1104, 1113, 1032
814, 1023, 1104, 1113, 1032, 1024, 1105, 1114, 1033
815, 1024, 1105, 1114, 1033, 1025, 1106, 1115, 1034
816, 1025, 1106, 1115, 1034, 1026, 1107, 1116, 1035
817, 1027, 1108, 1117, 1036, 1028, 1109, 1118, 1037
818, 1028, 1109, 1118, 1037, 1029, 1110, 1119, 1038
819, 1029, 1110, 1119, 1038, 1030, 1111, 1120, 1039
820, 1030, 1111, 1120, 1039, 1031, 1112, 1121, 1040
821, 1031, 1112, 1121, 1040, 1032, 1113, 1122, 1041
822, 1032, 1113, 1122, 1041, 1033, 1114, 1123, 1042
823, 1033, 1114, 1123, 1042, 1034, 1115, 1124, 1043
824, 1034, 1115, 1124, 1043, 1035, 1116, 1125, 1044
825, 1036, 1117, 1126, 1045, 1037, 1118, 1127, 1046
826, 1037, 1118, 1127, 1046, 1038, 1119, 1128, 1047
827, 1038, 1119, 1128, 1047, 1039, 1120, 1129, 1048
828, 1039, 1120, 1129, 1048, 1040, 1121, 1130, 1049
829, 1040, 1121, 1130, 1049, 1041, 1122, 1131, 1050
830, 1041, 1122, 1131, 1050, 1042, 1123, 1132, 1051
831, 1042, 1123, 1132, 1051, 1043, 1124, 1133, 1052
832, 1043, 1124, 1133, 1052, 1044, 1125, 1134, 1053
833, 1054, 1135, 1144, 1063, 1055, 1136, 1145, 1064
834, 1055, 1136, 1145, 1064, 1056, 1137, 1146, 1065
835, 1056, 1137, 1146, 1065, 1057, 1138, 1147, 1066
836, 1057, 1138, 1147, 1066, 1058, 1139, 1148, 1067
837, 1058, 1139, 1148, 1067, 1059, 1140, 1149, 1068
838, 1059, 1140, 1149, 1068, 1060, 1141, 1150, 1069
839, 1060, 1141, 1150, 1069, 1061, 1142, 1151, 1070
840, 1061, 1142, 1151, 1070, 1062, 1143, 1152, 1071
841, 1063, 1144, 1153, 1072, 1064, 1145, 1154, 1073
842, 1064, 1145, 1154, 1073, 1065, 1146, 1155, 1074
843, 1065, 1146, 1155, 1074, 1066, 1147, 1156, 1075
844, 1066, 1147, 1156, 1075, 1067, 1148, 1157, 1076
845, 1067, 1148, 1157, 1076, 1068, 1149, 1158, 1077
846, 1068, 1149, 1158, 1077, 1069, 1150, 1159, 1078
847, 1069, 1150, 1159, 1078, 1070, 1151, 1160, 1079
848, 1070, 1151, 1160, 1079, 1071, 1152, 1161, 1080
849, 1072, 1153, 1162, 1081, 1073, 1154, 1163, 1082
850, 1073, 1154, 1163, 1082, 1074, 1155, 1164, 1083
851, 1074, 1155, 1164, 1083, 1075, 1156, 1165, 1084
852, 1075, 1156, 1165, 1084, 1076, 1157, 1166, 1085
853, 1076, 1157, 1166, 1085, 1077, 1158, 1167, 1086
854, 1077, 1158, 1167, 1086, 1078, 1159, 1168, 1087
855, 1078, 1159, 1168, 1087, 1079, 1160, 1169, 1088
856, 1079, 1160, 1169, 1088, 1080, 1161, 1170, 1089
857, 1081, 1162, 1171, 1090, 1082, 1163, 1172, 1091
858, 1082, 1163, 1172, 1091, 1083, 1164, 1173, 1092
859, 1083, 1164, 1173, 1092, 1084, 1165, 1174, 1093
860, 1084, 1165, 1174, 1093, 1085, 1166, 1175, 1094
861, 1085, 1166, 1175, 1094, 1086, 1167, 1176, 1095
862, 1086, 1167, 1176, 1095, 1087, 1168, 1177, 1096
863, 1087, 1168, 1177, 1096, 1088, 1169, 1178, 1097
864, 1088, 1169, 1178, 1097, 1089, 1170, 1179, 1098
865, 1090, 1171, 1180, 1099, 1091, 1172, 1181, 1100
866, 1091, 1172, 1181, 1100, 1092, 1173, 1182, 1101
867, 1092, 1173, 1182, 1101, 1093, 1174, 1183, 1102
868, 1093, 1174, 1183, 1102, 1094, 1175, 1184, 1103
869, 1094, 1175, 1184, 1103, 1095, 1176, 1185, 1104
870, 1095, 1176, 1185, 1104, 1096, 1177, 1186, 1105
871, 1096, 1177, 1186, 1105, 1097, 1178, 1187, 1106
872, 1097, 1178, 1187, 1106, 1098, 1179, 1188, 1107
873, 1099, 1180, 1189, 1108, 1100, 1181, 1190, 1109
874, 1100, 1181, 1190, 1109, 1101, 1182, 1191, 1110
875, 1101, 1182, 1191, 1110, 1102, 1183, 1192, 1111
876, 1102, 1183, 1192, 1111, 1103, 1184, 1193, 1112
877, 1103, 1184, 1193, 1112, 1104, 1185, 1194, 1113
878, 1104, 1185, 1194, 1113, 1105, 1186, 1195, 1114
879, 1105, 1186, 1195, 1114, 1106, 1187, 1196, 1115
880, 1106, 1187, 1196, 1115, 1107, 1188, 1197, 1116
881, 1108, 1189, 1198, 1117, 1109, 1190, 1199, 1118
882, 1109, 1190, 1199, 1118, 1110, 1191, 1200, 1119
883, 1110, 1191, 1200, 1119, 1111, 1192, 1201, 1120
884, 1111, 1192, 1201, 1120, 1112, 1193, 1202, 1121
885, 1112, 1193, 1202, 1121, 1113, 1194, 1203, 1122
886, 1113, 1194, 1203, 1122, 1114, 1195, 1204, 1123
887, 1114, 1195, 1204, 1123, 1115, 1196, 1205, 1124
888, 1115, 1196, 1205, 1124, 1116, 1197, 1206, 1125
889, 1117, 1198, 1207, 1126, 1118, 1199, 1208, 1127
890, 1118, 1199, 1208, 1127, 1119, 1200, 1209, 1128
891, 1119, 1200, 1209, 1128, 1120, 1201, 1210, 1129
892, 1120, 1201, 1210, 1129, 1121, 1202, 1211, 1130
893, 1121, 1202, 1211, 1130, 1122, 1203, 1212, 1131
894, 1122, 1203, 1212, 1131, 1123, 1204, 1213, 1132
895, 1123, 1204, 1213, 1132, 1124, 1205, 1214, 1133
896, 1124, 1205, 1214, 1133, 1125, 1206, 1215, 1134
897, 1135, 1216, 1225, 1144, 1136, 1217, 1226, 1145
898, 1136, 1217, 1226, 1145, 1137, 1218, 1227, 1146
899, 1137, 1218, 1227, 1146, 1138, 1219, 1228, 1147
900, 1138, 1219, 1228, 1147, 1139, 1220, 1229, 1148
901, 1139, 1220, 1229, 1148, 1140, 1221, 1230, 1149
902, 1140, 1221, 1230, 1149, 1141, 1222, 1231, 1150
903, 1141, 1222, 1231, 1150, 1142, 1223, 1232, 1151
904, 1142, 1223, 1232, 1151, 1143, 1224, 1233, 1152
905, 1144, 1225, 1234, 1153, 1145, 1226, 1235, 1154
906, 1145, 1226, 1235, 1154, 1146, 1227, 1236, 1155
907, 1146, 1227, 1236, 1155, 1147, 1228, 1237, 1156
908, 1147, 1228, 1237, 1156, 1148, 1229, 1238, 1157
909, 1148, 1229, 1238, 1157, 1149, 1230, 1239, 1158
910, 1149, 1230, 1239, 1158, 1150, 1231, 1240, 1159
911, 1150, 1231, 1240, 1159, 1151, 1232, 1241, 1160
912, 1151, 1232, 1241, 1160, 1152, 1233, 1242, 1161
913, 1153, 1234, 1243, 1162, 1154, 1235, 1244, 1163
914, 1154, 1235, 1244, 1163, 1155, 1236, 1245, 1164
915, 1155, 1236, 1245, 1164, 1156, 1237, 1246, 1165
916, 1156, 1237, 1246, 1165, 1157, 1238, 1247, 1166
917, 1157, 1238, 1247, 1166, 1158, 1239, 1248, 1167
918, 1158, 1239, 1248, 1167, 1159, 1240, 1249, 1168
919, 1159, 1240, 1249, 1168, 1160, 1241, 1250, 1169
920, 1160, 1241, 1250, 1169, 1161, 1242, 1251, 1170
921, 1162, 1243, 1252, 1171, 1163, 1244, 1253, 1172
922, 1163, 1244, 1253, 1172, 1164, 1245, 1254, 1173
923, 1164, 1245, 1254, 1173, 1165, 1246, 1255, 1174
924, 1165, 1246, 1255, 1174, 1166, 1247, 1256, 1175
925, 1166, 1247, 1256, 1175, 1167, 1248, 1257, 1176
926, 1167, 1248, 1257, 1176, 1168, 1249, 1258, 1177
927, 1168, 1249, 1258, 1177, 1169, 1250, 1259, 1178
928, 1169, 1250, 1259, 1178, 1170, 1251, 1260, 1179
929, 1171, 1252, 1261, 1180, 1172, 1253, 1262, 1181
930, 1172, 1253, 1262, 1181, 1173, 1254, 1263, 1182
931, 1173, 1254, 1263, 1182, 1174, 1255, 1264, 1183
932, 1174, 1255, 1264, 1183, 1175, 1256, 1265, 1184
933, 1175, 1256, 1265, 1184, 1176, 1257, 1266, 1185
934, 1176, 1257, 1266, 1185, 1177, 1258, 1267, 1186
935, 1177, 1258, 1267, 1186, 1178, 1259, 1268, 1187
936, 1178, 1259, 1268, 1187, 1179, 1260, 1269, 1188
937, 1180, 1261, 1270, 1189, 1181, 1262, 1271, 1190
938, 1181, 1262, 1271, 1190, 1182, 1263, 1272, 1191
939, 1182, 1263, 1272, 1191, 1183, 1264, 1273, 1192
940, 1183, 1264, 1273, 1192, 1184, 1265, 1274, 1193
941, 1184, 1265, 1274, 1193, 1185, 1266, 1275, 1194
942, 1185, 1266, 1275, 1194, 1186, 1267, 1276, 1195
943, 1186, 1267, 1276, 1195, 1187, 1268, 1277, 1196
944, 1187, 1268, 1277, 1196, 1188, 1269, 1278, 1197
945, 1189, 1270, 1279, 1198, 1190, 1271, 1280, 1199
946, 1190, 1271, 1280, 1199, 1191, 1272, 1281, 1200
947, 1191, 1272, 1281, 1200, 1192, 1273, 1282, 1201
948, 1192, 1273, 1282, 1201, 1193, 1274, 1283, 1202
949, 1193, 1274, 1283, 1202, 1194, 1275, 1284, 1203
950, 1194, 1275, 1284, 1203, 1195, 1276, 1285, 1204
951, 1195, 1276, 1285, 1204, 1196, 1277, 1286, 1205
952, 1196, 1277, 1286, 1205, 1197, 1278, 1287, 1206
953, 1198, 1279, 1288, 1207, 1199, 1280, 1289, 1208
954, 1199, 1280, 1289, 1208, 1200, 1281, 1290, 1209
955, 1200, 1281, 1290, 1209, 1201, 1282, 1291, 1210
956, 1201, 1282, 1291, 1210, 1202, 1283, 1292, 1211
957, 1202, 1283, 1292, 1211, 1203, 1284, 1293, 1212
958, 1203, 1284, 1293, 1212, 1204, 1285, 1294, 1213
959, 1204, 1285, 1294, 1213, 1205, 1286, 1295, 1214
960, 1205, 1286, 1295, 1214, 1206, 1287, 1296, 1215
961, 1216, 1297, 1306, 1225, 1217, 1298, 1307, 1226
962, 1217, 1298, 1307, 1226, 1218, 1299, 1308, 1227
963, 1218, 1299, 1308, 1227, 1219, 1300, 1309, 1228
964, 1219, 1300, 1309, 1228, 1220, 1301, 1310, 1229
965, 1220, 1301, 1310, 1229, 1221, 1302, 1311, 1230
966, 1221, 1302, 1311, 1230, 1222, 1303, 1312, 1231
967, 1222, 1303, 1312, 1231, 1223, 1304, 1313, 1232
968, 1223, 1304, 1313, 1232, 1224, 1305, 1314, 1233
969, 1225, 1306, 1315, 1234, 1226, 1307, 1316, 1235
970, 1226, 1307, 1316, 1235, 1227, 1308, 1317, 1236
971, 1227, 1308, 1317, 1236, 1228, 1309, 1318, 1237
972, 1228, 1309, 1318, 1237, 1229, 1310, 1319, 1238
973, 1229, 1310, 1319, 1238, 1230, 1311, 1320, 1239
974, 1230, 1311, 1320, 1239, 1231, 1312, 1321, 1240
975, 1231, 1312, 1321, 1240, 1232, 1313, 1322, 1241
976, 1232, 1313, 1322, 1241, 1233, 1314, 1323, 1242
977, 1234, 1315, 1324, 1243, 1235, 1316, 1325, 1244
978, 1235, 1316, 1325, 1244, 1236, 1317, 1326, 1245
979, 1236, 1317, 1326, 1245, 1237, 1318, 1327, 1246
980, 1237, 1318, 1327, 1246, 1238, 1319, 1328, 1247
981, 1238, 1319, 1328, 1247, 1239, 1320, 1329, 1248
982, 1239, 1320, 1329, 1248, 1240, 1321, 1330, 1249
983, 1240, 1321, 1330, 1249, 1241, 1322, 1331, 1250
984, 1241, 1322, 1331, 1250, 1242, 1323, 1332, 1251
985, 1243, 1324, 1333, 1252, 1244, 1325, 1334, 1253
986, 1244, 1325, 1334, 1253, 1245, 1326, 1335, 1254
987, 1245, 1326, 1335, 1254, 1246, 1327, 1336, 1255
988, 1246, 1327, 1336, 1255, 1247, 1328, 1337, 1256
989, 1247, 1328, 1337, 1256, 1248, 1329, 1338, 1257
990, 1248, 1329, 1338, 1257, 1249, 1330, 1339, 1258
991, 1249, 1330, 1339, 1258, 1250, 1331, 1340, 1259
992, 1250, 1331, 1340, 1259, 1251, 1332, 1341, 1260
993, 1252, 1333, 1342, 1261, 1253, 1334, 1343, 1262
994, 1253, 1334, 1343, 1262, 1254, 1335, 1344, 1263
995, 1254, 1335, 1344, 1263, 1255, 1336, 1345, 1264
996, 1255, 1336, 1345, 1264, 1256, 1337, 1346, 1265
997, 1256, 1337, 1346, 1265, 1257, 1338, 1347, 1266
998, 1257, 1338, 1347, 1266, 1258, 1339, 1348, 1267
999, 1258, 1339, 1348, 1267, 1259, 1340, 1349, 1268
1000, 1259, 1340, 1349, 1268, 1260, 1341, 1350, 1269
1001, 1261, 1342, 1351, 1270, 1262, 1343, 1352, 1271
1002, 1262, 1343, 1352, 1271, 1263, 1344, 1353, 1272
1003, 1263, 1344, 1353, 1272, 1264, 1345, 1354, 1273
1004, 1264, 1345, 1354, 1273, 1265, 1346, 1355, 1274
1005, 1265, 1346, 1355, 1274, 1266, 1347, 1356, 1275
1006, 1266, 1347, 1356, 1275, 1267, 1348, 1357, 1276
1007, 1267, 1348, 1357, 1276, 1268, 1349, 1358, 1277
1008, 1268, 1349, 1358, 1277, 1269, 1350, 1359, 1278
1009, 1270, 1351, 1360, 1279, 1271, 1352, 1361, 1280
1010, 1271, 1352, 1361, 1280, 1272, 1353, 1362, 1281
1011, 1272, 1353, 1362, 1281, 1273, 1354, 1363, 1282
1012, 1273, 1354, 1363, 1282, 1274, 1355, 1364, 1283
1013, 1274, 1355, 1364, 1283, 1275, 1356, 1365, 1284
1014, 1275, 1356, 1365, 1284, 1276, 1357, 1366, 1285
1015, 1276, 1357, 1366, 1285, 1277, 1358, 1367, 1286
1016, 1277, 1358, 1367, 1286, 1278, 1359, 1368, 1287
1017, 1279, 1360, 1369, 1288, 1280, 1361, 1370, 1289
1018, 1280, 1361, 1370, 1289, 1281, 1362, 1371, 1290
1019, 1281, 1362, 1371, 1290, 1282, 1363, 1372, 1291
1020, 1282, 1363, 1372, 1291, 1283, 1364, 1373, 1292
1021, 1283, 1364, 1373, 1292, 1284, 1365, 1374, 1293
1022, 1284, 1365, 1374, 1293, 1285, 1366, 1375, 1294
1023, 1285, 1366, 1375, 1294, 1286, 1367, 1376, 1295
1024, 1286, 1367, 1376, 1295, 1287, 1368, 1377, 1296
1025, 1297, 1378, 1387, 1306, 1298, 1379, 1388, 1307
1026, 1298, 1379, 1388, 1307, 1299, 1380, 1389, 1308
1027, 1299, 1380, 1389, 1308, 1300, 1381, 1390, 1309
1028, 1300, 1381, 1390, 1309, 1301, 1382, 1391, 1310
1029, 1301, 1382, 1391, 1310, 1302, 1383, 1392, 1311
1030, 1302, 1383, 1392, 1311, 1303, 1384, 1393, 1312
1031, 1303, 1384, 1393, 1312, 1304, 1385, 1394, 1313
1032, 1304, 1385, 1394, 1313, 1305, 1386, 1395, 1314
1033, 1306, 1387, 1396, 1315, 1307, 1388, 1397, 1316
1034, 1307, 1388, 1397, 1316, 1308, 1389, 1398, 1317
1035, 1308, 1389, 1398, 1317, 1309, 1390, 1399, 1318
1036, 1309, 1390, 1399, 1318, 1310, 1391, 1400, 1319
1037, 1310, 1391, 1400, 1319, 1311, 1392, 1401, 1320
1038, 1311, 1392, 1401, 1320, 1312, 1393, 1402, 1321
1039, 1312, 1393, 1402, 1321, 1313, 1394, 1403, 1322
1040, 1313, 1394, 1403, 1322, 1314, 1395, 1404, 1323
1041, 1315, 1396, 1405, 1324, 1316, 1397, 1406, 1325
1042, 1316, 1397, 1406, 1325, 1317, 1398, 1407, 1326
1043, 1317, 1398, 1407, 1326, 1318, 1399, 1408, 1327
1044, 1318, 1399, 1408, 1327, 1319, 1400, 1409, 1328
1045, 1319, 1400, 1409, 1328, 1320, 1401, 1410, 1329
1046, 1320, 1401, 1410, 1329, 1321, 1402, 1411, 1330
1047, 1321, 1402, 1411, 1330, 1322, 1403, 1412, 1331
1048, 1322, 1403, 1412, 1331, 1323, 1404, 1413, 1332
1049, 1324, 1405, 1414, 1333, 1325, 1406, 1415, 1334
1050, 1325, 1406, 1415, 1334, 1326, 1407, 1416, 1335
1051, 1326, 1407, 1416, 1335, 1327, 1408, 1417, 1336
1052, 1327, 1408, 1417, 1336, 1328, 1409, 1418, 1337
1053, 1328, 1409, 1418, 1337, 1329, 1410, 1419, 1338
1054, 1329, 1410, 1419, 1338, 1330, 1411, 1420, 1339
1055, 1330, 1411, 1420, 1339, 1331, 1412, 1421, 1340
1056, 1331, 1412, 1421, 1340, 1332, 1413, 1422, 1341
1057, 1333, 1414, 1423, 1342, 1334, 1415, 1424, 1343
1058, 1334, 1415, 1424, 1343, 1335, 1416, 1425, 1344
1059, 1335, 1416, 1425, 1344, 1336, 1417, 1426, 1345
1060, 1336, 1417, 1426, 1345, 1337, 1418, 1427, 1346
1061, 1337, 1418, 1427, 1346, 1338, 1419, 1428, 1347
1062, 1338, 1419, 1428, 1347, 1339, 1420, 1429, 1348
1063, 1339, 1420, 1429, 1348, 1340, 1421, 1430, 1349
1064, 1340, 1421, 1430, 1349, 1341, 1422, 1431, 1350
1065, 1342, 1423, 1432, 1351, 1343, 1424, 1433, 1352
1066, 1343, 1424, 1433, 1352, 1344, 1425, 1434, 1353
1067, 1344, 1425, 1434, 1353, 1345, 1426, 1435, 1354
1068, 1345, 1426, 1435, 1354, 1346, 1427, 1436, 1355
1069, 1346, 1427, 1436, 1355, 1347, 1428, 1437, 1356
1070, 1347, 1428, 1437, 1356, 1348, 1429, 1438, 1357
1071, 1348, 1429, 1438, 1357, 1349, 1430, 1439, 1358
1072, 1349, 1430, 1439, 1358, 1350, 1431, 1440, 1359
1073, 1351, 1432, 1441, 1360, 1352, 1433, 1442, 1361
1074, 1352, 1433, 1442, 1361, 1353, 1434, 1443, 1362
1075, 1353, 1434, 1443, 1362, 1354, 1435, 1444, 1363
1076, 1354, 1435, 1444, 1363, 1355, 1436, 1445, 1364
1077, 1355, 1436, 1445, 1364, 1356, 1437, 1446, 1365
1078, 1356, 1437, 1446, 1365, 1357, 1438, 1447, 1366
1079, 1357, 1438, 1447, 1366, 1358, 1439, 1448, 1367
1080, 1358, 1439, 1448, 1367, 1359, 1440, 1449, 1368
1081, 1360, 1441, 1450, 1369, 1361, 1442, 1451, 1370
1082, 1361, 1442, 1451, 1370, 1362, 1443, 1452, 1371
1083, 1362, 1443, 1452, 1371, 1363, 1444, 1453, 1372
1084, 1363, 1444, 1453, 1372, 1364, 1445, 1454, 1373
1085, 1364, 1445, 1454, 1373, 1365, 1446, 1455, 1374
1086, 1365, 1446, 1455, 1374, 1366, 1447, 1456, 1375
1087, 1366, 1447, 1456, 1375, 1367, 1448, 1457, 1376
1088, 1367, 1448, 1457, 1376, 1368, 1449, 1458, 1377
1089, 1378, 1459, 1468, 1387, 1379, 1460, 1469, 1388
1090, 1379, 1460, 1469, 1388, 1380, 1461, 1470, 1389
1091, 1380, 1461, 1470, 1389, 1381, 1462, 1471, 1390
1092, 1381, 1462, 1471, 1390, 1382, 1463, 1472, 1391
1093, 1382, 1463, 1472, 1391, 1383, 1464, 1473, 1392
1094, 1383, 1464, 1473, 1392, 1384, 1465, 1474, 1393
1095, 1384, 1465, 1474, 1393, 1385, 1466, 1475, 1394
1096, 1385, 1466, 1475, 1394, 1386, 1467, 1476, 1395
1097, 1387, 1468, 1477, 1396, 1388, 1469, 1478, 1397
1098, 1388, 1469, 1478, 1397, 1389, 1470, 1479, 1398
1099, 1389, 1470, 1479, 1398, 1390, 1471, 1480, 1399
1100, 1390, 1471, 1480, 1399, 1391, 1472, 1481, 1400
1101, 1391, 1472, 1481, 1400, 1392, 1473, 1482, 1401
1102, 1392, 1473, 1482, 1401, 1393, 1474, 1483, 1402
1103, 1393, 1474, 1483, 1402, 1394, 1475, 1484, 1403
1104, 1394, 1475, 1484, 1403, 1395, 1476, 1485, 1404
1105, 1396, 1477, 1486, 1405, 1397, 1478, 1487, 1406
1106, 1397, 1478, 1487, 1406, 1398, 1479, 1488, 1407
1107, 1398, 1479, 1488, 1407, 1399, 1480, 1489, 1408
1108, 1399, 1480, 1489, 1408, 1400, 1481, 1490, 1409
1109, 1400, 1481, 1490, 1409, 1401, 1482, 1491, 1410
1110, 1401, 1482, 1491, 1410, 1402, 1483, 1492, 1411
1111, 1402, 1483, 1492, 1411, 1403, 1484, 1493, 1412
1112, 1403, 1484, 1493, 1412, 1404, 1485, 1494, 1413
1113, 1405, 1486, 1495, 1414, 1406, 1487, 1496, 1415
1114, 1406, 1487, 1496, 1415, 1407, 1488, 1497, 1416
1115, 1407, 1488, 1497, 1416, 1408, 1489, 1498, 1417
1116, 1408, 1489, 1498, 1417, 1409, 1490, 1499, 1418
1117, 1409, 1490, 1499, 1418, 1410, 1491, 1500, 1419
1118, 1410, 1491, 1500, 1419, 1411, 1492, 1501, 1420
1119, 1411, 1492, 1501, 1420, 1412, 1493, 1502, 1421
1120, 1412, 1493, 1502, 1421, 1413, 1494, 1503, 1422
1121, 1414, 1495, 1504, 1423, 1415, 1496, 1505, 1424
1122, 1415, 1496, 1505, 1424, 1416, 1497, 1506, 1425
1123, 1416, 1497, 1506, 1425, 1417, 1498, 1507, 1426
1124, 1417, 1498, 1507, 1426, 1418, 1499, 1508, 1427
1125, 1418, 1499, 1508, 1427, 1419, 1500, 1509, 1428
1126, 1419, 1500, 1509, 1428, 1420, 1501, 1510, 1429
1127, 1420, 1501, 1510, 1429, 1421, 1502, 1511, 1430
1128, 1421, 1502, 1511, 1430, 1422, 1503, 1512, 1431
1129, 1423, 1504, 1513, 1432, 1424, 1505, 1514, 1433
1130, 1424, 1505, 1514, 1433, 1425, 1506, 1515, 1434
1131, 1425, 1506, 1515, 1434, 1426, 1507, 1516, 1435
1132, 1426, 1507, 1516, 1435, 1427, 1508, 1517, 1436
1133, 1427, 1508, 1517, 1436, 1428, 1509, 1518, 1437
1134, 1428, 1509, 1518, 1437, 1429, 1510, 1519, 1438
1135, 1429, 1510, 1519, 1438, 1430, 1511, 1520, 1439
1136, 1430, 1511, 1520, 1439, 1431, 1512, 1521, 1440
1137, 1432, 1513, 1522, 1441, 1433, 1514, 1523, 1442
1138, 1433, 1514, 1523, 1442, 1434, 1515, 1524, 1443
1139, 1434, 1515, 1524, 1443, 1435, 1516, 1525, 1444
1140, 1435, 1516, 1525, 1444, 1436, 1517, 1526, 1445
1141, 1436, 1517, 1526, 1445, 1437, 1518, 1527, 1446
1142, 1437, 1518, 1527, 1446, 1438, 1519, 1528, 1447
1143, 1438, 1519, 1528, 1447, 1439, 1520, 1529, 1448
1144, 1439, 1520, 1529, 1448, 1440, 1521, 1530, 1449
1145, 1441, 1522, 1531, 1450, 1442, 1523, 1532, 1451
1146, 1442, 1523, 1532, 1451, 1443, 1524, 1533, 1452
1147, 1443, 1524, 1533, 1452, 1444, 1525, 1534, 1453
1148, 1444, 1525, 1534, 1453, 1445, 1526, 1535, 1454
1149, 1445, 1526, 1535, 1454, 1446, 1527, 1536, 1455
1150, 1446, 1527, 1536, 1455, 1447, 1528, 1537, 1456
1151, 1447, 1528, 1537, 1456, 1448, 1529, 1538, 1457
1152, 1448, 1529, 1538, 1457, 1449, 1530, 1539, 1458
1153, 1459, 1540, 1549, 1468, 1460, 1541, 1550, 1469
1154, 1460, 1541, 1550, 1469, 1461, 1542, 1551, 1470
1155, 1461, 1542, 1551, 1470, 1462, 1543, 1552, 1471
1156, 1462, 1543, 1552, 1471, 1463, 1544, 1553, 1472
1157, 1463, 1544, 1553, 1472, 1464, 1545, 1554, 1473
1158, 1464, 1545, 1554, 1473, 1465, 1546, 1555, 1474
1159, 1465, 1546, 1555, 1474, 1466, 1547, 1556, 1475
1160, 1466, 1547, 1556, 1475, 1467, 1548, 1557, 1476
1161, 1468, 1549, 1558, 1477, 1469, 1550, 1559, 1478
1162, 1469, 1550, 1559, 1478, 1470, 1551, 1560, 1479
1163, 1470, 1551, 1560, 1479, 1471, 1552, 1561, 1480
1164, 1471, 1552, 1561, 1480, 1472, 1553, 1562, 1481
1165, 1472, 1553, 1562, 1481, 1473, 1554, 1563, 1482
1166, 1473, 1554, 1563, 1482, 1474, 1555, 1564, 1483
1167, 1474, 1555, 1564, 1483, 1475, 1556, 1565, 1484
1168, 1475, 1556, 1565, 1484, 1476, 1557, 1566, 1485
1169, 1477, 1558, 1567, 1486, 1478, 1559, 1568, 1487
1170, 1478, 1559, 1568, 1487, 1479, 1560, 1569, 1488
1171, 1479, 1560, 1569, 1488, 1480, 1561, 1570, 1489
1172, 1480, 1561, 1570, 1489, 1481, 1562, 1571, 1490
1173, 1481, 1562, 1571, 1490, 1482, 1563, 1572, 1491
1174, 1482, 1563, 1572, 1491, 1483, 1564, 1573, 1492
1175, 1483, 1564, 1573, 1492, 1484, 1565, 1574, 1493
1176, 1484, 1565, 1574, 1493, 1485, 1566, 1575, 1494
1177, 1486, 1567, 1576, 1495, 1487, 1568, 1577, 1496
1178, 1487, 1568, 1577, 1496, 1488, 1569, 1578, 1497
1179, 1488, 1569, 1578, 1497, 1489, 1570, 1579, 1498
1180, 1489, 1570, 1579, 1498, 1490, 1571, 1580, 1499
1181, 1490, 1571, 1580, 1499, 1491, 1572, 1581, 1500
1182, 1491, 1572, 1581, 1500, 1492, 1573, 1582, 1501
1183, 1492, 1573, 1582, 1501, 1493, 1574, 1583, 1502
1184, 1493, 1574, 1583, 1502, 1494, 1575, 1584, 1503
1185, 1495, 1576, 1585, 1504, 1496, 1577, 1586, 1505
1186, 1496, 1577, 1586, 1505, 1497, 1578, 1587, 1506
1187, 1497, 1578, 1587, 1506, 1498, 1579, 1588, 1507
1188, 1498, 1579, 1588, 1507, 1499, 1580, 1589, 1508
1189, 1499, 1580, 1589, 1508, 1500, 1581, 1590, 1509
1190, 1500, 1581, 1590, 1509, 1501, 1582, 1591, 1510
1191, 1501, 1582, 1591, 1510, 1502, 1583, 1592, 1511
1192, 1502, 1583, 1592, 1511, 1503, 1584, 1593, 1512
1193, 1504, 1585, 1594, 1513, 1505, 1586, 1595, 1514
1194, 1505, 1586, 1595, 1514, 1506, 1587, 1596, 1515
1195, 1506, 1587, 1596, 1515, 1507, 1588, 1597, 1516
1196, 1507, 1588, 1597, 1516, 1508, 1589, 1598, 1517
1197, 1508, 1589, 1598, 1517, 1509, 1590, 1599, 1518
1198, 1509, 1590, 1599, 1518, 1510, 1591, 1600, 1519
1199, 1510, 1591, 1600, 1519, 1511, 1592, 1601, 1520
1200, 1511, 1592, 1601, 1520, 1512, 1593, 1602, 1521
1201, 1513, 1594, 1603, 1522, 1514, 1595, 1604, 1523
1202, 1514, 1595, 1604, 1523, 1515, 1596, 1605, 1524
1203, 1515, 1596, 1605, 1524, 1516, 1597, 1606, 1525
1204, 1516, 1597, 1606, 1525, 1517, 1598, 1607, 1526
1205, 1517, 1598, 1607, 1526, 1518, 1599, 1608, 1527
1206, 1518, 1599, 1608, 1527, 1519, 1600, 1609, 1528
1207, 1519, 1600, 1609, 1528, 1520, 1601, 1610, 1529
1208, 1520, 1601, 1610, 1529, 1521, 1602, 1611, 1530
1209, 1522, 1603, 1612, 1531, 1523, 1604, 1613, 1532
1210, 1523, 1604, 1613, 1532, 1524, 1605, 1614, 1533
1211, 1524, 1605, 1614, 1533, 1525, 1606, 1615, 1534
1212, 1525, 1606, 1615, 1534, 1526, 1607, 1616, 1535
1213, 1526, 1607, 1616, 1535, 1527, 1608, 1617, 1536
1214, 1527, 1608, 1617, 1536, 1528, 1609, 1618, 1537
1215, 1528, 1609, 1618, 1537, 1529, 1610, 1619, 1538
1216, 1529, 1610, 1619, 1538, 1530, 1611, 1620, 1539
1217, 1540, 1621, 1630, 1549, 1541, 1622, 1631, 1550
1218, 1541, 1622, 1631, 1550, 1542, 1623, 1632, 1551
1219, 1542, 1623, 1632, 1551, 1543, 1624, 1633, 1552
1220, 1543, 1624, 1633, 1552, 1544, 1625, 1634, 1553
1221, 1544, 1625, 1634, 1553, 1545, 1626, 1635, 1554
1222, 1545, 1626, 1635, 1554, 1546, 1627, 1636, 1555
1223, 1546, 1627, 1636, 1555, 1547, 1628, 1637, 1556
1224, 1547, 1628, 1637, 1556, 1548, 1629, 1638, 1557
1225, 1549, 1630, 1639, 1558, 1550, 1631, 1640, 1559
1226, 1550, 1631, 1640, 1559, 1551, 1632, 1641, 1560
1227, 1551, 1632, 1641, 1560, 1552, 1633, 1642, 1561
1228, 1552, 1633, 1642, 1561, 1553, 1634, 1643, 1562
1229, 1553, 1634, 1643, 1562, 1554, 1635, 1644, 1563
1230, 1554, 1635, 1644, 1563, 1555, 1636, 1645, 1564
1231, 1555, 1636, 1645, 1564, 1556, 1637, 1646, 1565
1232, 1556, 1637, 1646, 1565, 1557, 1638, 1647, 1566
1233, 1558, 1639, 1648, 1567, 1559, 1640, 1649, 1568
1234, 1559, 1640, 1649, 1568, 1560, 1641, 1650, 1569
1235, 1560, 1641, 1650, 1569, 1561, 1642, 1651, 1570
1236, 1561, 1642, 1651, 1570, 1562, 1643, 1652, 1571
1237, 1562, 1643, 1652, 1571, 1563, 1644, 1653, 1572
1238, 1563, 1644, 1653, 1572, 1564, 1645, 1654, 1573
1239, 1564, 1645, 1654, 1573, 1565, 1646, 1655, 1574
1240, 1565, 1646, 1655, 1574, 1566, 1647, 1656, 1575
1241, 1567, 1648, 1657, 1576, 1568, 1649, 1658, 1577
1242, 1568, 1649, 1658, 1577, 1569, 1650, 1659, 1578
1243, 1569, 1650, 1659, 1578, 1570, 1651, 1660, 1579
1244, 1570, 1651, 1660, 1579, 1571, 1652, 1661, 1580
1245, 1571, 1652, 1661, 1580, 1572, 1653, 1662, 1581
1246, 1572, 1653, 1662, 1581, 1573, 1654, 1663, 1582
1247, 1573, 1654, 1663, 1582, 1574, 1655, 1664, 1583
1248, 1574, 1655, 1664, 1583, 1575, 1656, 1665, 1584
1249, 1576, 1657, 1666, 1585, 1577, 1658, 1667, 1586
1250, 1577, 1658, 1667, 1586, 1578, 1659, 1668, 1587
1251, 1578, 1659, 1668, 1587, 1579, 1660, 1669, 1588
1252, 1579, 1660, 1669, 1588, 1580, 1661, 1670, 1589
1253, 1580, 1661, 1670, 1589, 1581, 1662, 1671, 1590
1254, 1581, 1662, 1671, 1590, 1582, 1663, 1672, 1591
1255, 1582, 1663, 1672, 1591, 1583, 1664, 1673, 1592
1256, 1583, 1664, 1673, 1592, 1584, 1665, 1674, 1593
1257, 1585, 1666, 1675, 1594, 1586, 1667, 1676, 1595
1258, 1586, 1667, 1676, 1595, 1587, 1668, 1677, 1596
1259, 1587, 1668, 1677, 1596, 1588, 1669, 1678, 1597
1260, 1588, 1669, 1678, 1597, 1589, 1670, 1679, 1598
1261, 1589, 1670, 1679, 1598, 1590, 1671, 1680, 1599
1262, 1590, 1671, 1680, 1599, 1591, 1672, 1681, 1600
1263, 1591, 1672, 1681, 1600, 1592, 1673, 1682, 1601
1264, 1592, 1673, 1682, 1601, 1593, 1674, 1683, 1602
1265, 1594, 1675, 1684, 1603, 1595, 1676, 1685, 1604
1266, 1595, 1676, 1685, 1604, 1596, 1677, 1686, 1605
1267, 1596, 1677, 1686, 1605, 1597, 1678, 1687, 1606
1268, 1597, 1678, 1687, 1606, 1598, 1679, 1688, 1607
1269, 1598, 1679, 1688, 1607, 1599, 1680, 1689, 1608
1270, 1599, 1680, 1689, 1608, 1600, 1681, 1690, 1609
1271, 1600, 1681, 1690, 1609, 1601, 1682, 1691, 1610
1272, 1601, 1682, 1691, 1610, 1602, 1683, 1692, 1611
1273, 1603, 1684, 1693, 1612, 1604, 1685, 1694, 1613
1274, 1604, 1685, 1694, 1613, 1605, 1686, 1695, 1614
1275, 1605, 1686, 1695, 1614, 1606, 1687, 1696, 1615
1276, 1606, 1687, 1696, 1615, 1607, 1688, 1697, 1616
1277, 1607, 1688, 1697, 1616, 1608, 1689, 1698, 1617
1278, 1608, 1689, 1698, 1617, 1609, 1690, 1699, 1618
1279, 1609, 1690, 1699, 1618, 1610, 1691, 1700, 1619
1280, 1610, 1691, 1700, 1619, 1611, 1692, 1701, 1620
1281, 1621, 1702, 1711, 1630, 1622, 1703, 1712, 1631
1282, 1622, 1703, 1712, 1631, 1623, 1704, 1713, 1632
1283, 1623, 1704, 1713, 1632, 1624, 1705, 1714, 1633
1284, 1624, 1705, 1714, 1633, 1625, 1706, 1715, 1634
1285, 1625, 1706, 1715, 1634, 1626, 1707, 1716, 1635
1286, 1626, 1707, 1716, 1635, 1627, 1708, 1717, 1636
1287, 1627, 1708, 1717, 1636, 1628, 1709, 1718, 1637
1288, 1628, 1709, 1718, 1637, 1629, 1710, 1719, 1638
1289, 1630, 1711, 1720, 1639, 1631, 1712, 1721, 1640
1290, 1631, 1712, 1721, 1640, 1632, 1713, 1722, 1641
1291, 1632, 1713, 1722, 1641, 1633, 1714, 1723, 1642
1292, 1633, 1714, 1723, 1642, 1634, 1715, 1724, 1643
1293, 1634, 1715, 1724, 1643, 1635, 1716, 1725, 1644
1294, 1635, 1716, 1725, 1644, 1636, 1717, 1726, 1645
1295, 1636, 1717, 1726, 1645, 1637, 1718, 1727, 1646
1296, 1637, 1718, 1727, 1646, 1638, 1719, 1728, 1647
1297, 1639, 1720, 1729, 1648, 1640, 1721, 1730, 1649
1298, 1640, 1721, 1730, 1649, 1641, 1722, 1731, 1650
1299, 1641, 1722, 1731, 1650, 1642, 1723, 1732, 1651
1300, 1642, 1723, 1732, 1651, 1643, 1724, 1733, 1652
1301, 1643, 1724, 1733, 1652, 1644, 1725, 1734, 1653
1302, 1644, 1725, 1734, 1653, 1645, 1726, 1735, 1654
1303, 1645, 1726, 1735, 1654, 1646, 1727, 1736, 1655
1304, 1646, 1727, 1736, 1655, 1647, 1728, 1737, 1656
1305, 1648, 1729, 1738, 1657, 1649, 1730, 1739, 1658
1306, 1649, 1730, 1739, 1658, 1650, 1731, 1740, 1659
1307, 1650, 1731, 1740, 1659, 1651, 1732, 1741, 1660
1308, 1651, 1732, 1741, 1660, 1652, 1733, 1742, 1661
1309, 1652, 1733, 1742, 1661, 1653, 1734, 1743, 1662
1310, 1653, 1734, 1743, 1662, 1654, 1735, 1744, 1663
1311, 1654, 1735, 1744, 1663, 1655, 1736, 1745, 1664
1312, 1655, 1736, 1745, 1664, 1656, 1737, 1746, 1665
1313, 1657, 1738, 1747, 1666, 1658, 1739, 1748, 1667
1314, 1658, 1739, 1748, 1667, 1659, 1740, 1749, 1668
1315, 1659, 1740, 1749, 1668, 1660, 1741, 1750, 1669
1316, 1660, 1741, 1750, 1669, 1661, 1742, 1751, 1670
1317, 1661, 1742, 1751, 1670, 1662, 1743, 1752, 1671
1318, 1662, 1743, 1752, 1671, 1663, 1744, 1753, 1672
1319, 1663, 1744, 1753, 1672, 1664, 1745, 1754, 1673
1320, 1664, 1745, 1754, 1673, 1665, 1746, 1755, 1674
1321, 1666, 1747, 1756, 1675, 1667, 1748, 1757, 1676
1322, 1667, 1748, 1757, 1676, 1668, 1749, 1758, 1677
1323, 1668, 1749, 1758, 1677, 1669, 1750, 1759, 1678
1324, 1669, 1750, 1759, 1678, 1670, 1751, 1760, 1679
1325, 1670, 1751, 1760, 1679, 1671, 1752, 1761, 1680
1326, 1671, 1752, 1761, 1680, 1672, 1753, 1762, 1681
1327, 1672, 1753, 1762, 1681, 1673, 1754, 1763, 1682
1328, 1673, 1754, 1763, 1682, 1674, 1755, 1764, 1683
1329, 1675, 1756, 1765, 1684, 1676, 1757, 1766, 1685
1330, 1676, 1757, 1766, 1685, 1677, 1758, 1767, 1686
1331, 1677, 1758, 1767, 1686, 1678, 1759, 1768, 1687
1332, 1678, 1759, 1768, 1687, 1679, 1760, 1769, 1688
1333, 1679, 1760, 1769, 1688, 1680, 1761, 1770, 1689
1334, 1680, 1761, 1770, 1689, 1681, 1762, 1771, 1690
1335, 1681, 1762, 1771, 1690, 1682, 1763, 1772, 1691
1336, 1682, 1763, 1772, 1691, 1683, 1764, 1773, 1692
1337, 1684, 1765, 1774, 1693, 1685, 1766, 1775, 1694
1338, 1685, 1766, 1775, 1694, 1686, 1767, 1776, 1695
1339, 1686, 1767, 1776, 1695, 1687, 1768, 1777, 1696
1340, 1687, 1768, 1777, 1696, 1688, 1769, 1778, 1697
1341, 1688, 1769, 1778, 1697, 1689, 1770, 1779, 1698
1342, 1689, 1770, 1779, 1698, 1690, 1771, 1780, 1699
1343, 1690, 1771, 1780, 1699, 1691, 1772, 1781, 1700
1344, 1691, 1772, 1781, 1700, 1692, 1773, 1782, 1701
1345, 1702, 1783, 1792, 1711, 1703, 1784, 1793, 1712
1346, 1703, 1784, 1793, 1712, 1704, 1785, 1794, 1713
1347, 1704, 1785, 1794, 1713, 1705, 1786, 1795, 1714
1348, 1705, 1786, 1795, 1714, 1706, 1787, 1796, 1715
1349, 1706, 1787, 1796, 1715, 1707, 1788, 1797, 1716
1350, 1707, 1788, 1797, 1716, 1708, 1789, 1798, 1717
1351, 1708, 1789, 1798, 1717, 1709, 1790, 1799, 1718
1352, 1709, 1790, 1799, 1718, 1710, 1791, 1800, 1719
1353, 1711, 1792, 1801, 1720, 1712, 1793, 1802, 1721
1354, 1712, 1793, 1802, 1721, 1713, 1794, 1803, 1722
1355, 1713, 1794, 1803, 1722, 1714, 1795, 1804, 1723
1356, 1714, 1795, 1804, 1723, 1715, 1796, 1805, 1724
1357, 1715, 1796, 1805, 1724, 1716, 1797, 1806, 1725
1358, 1716, 1797, 1806, 1725, 1717, 1798, 1807, 1726
1359, 1717, 1798, 1807, 1726, 1718, 1799, 1808, 1727
1360, 1718, 1799, 1808, 1727, 1719, 1800, 1809, 1728
1361, 1720, 1801, 1810, 1729, 1721, 1802, 1811, 1730
1362, 1721, 1802, 1811, 1730, 1722, 1803, 1812, 1731
1363, 1722, 1803, 1812, 1731, 1723, 1804, 1813, 1732
1364, 1723, 1804, 1813, 1732, 1724, 1805, 1814, 1733
1365, 1724, 1805, 1814, 1733, 1725, 1806, 1815, 1734
1366, 1725, 1806, 1815, 1734, 1726, 1807, 1816, 1735
1367, 1726, 1807, 1816, 1735, 1727, 1808, 1817, 1736
1368, 1727, 1808, 1817, 1736, 1728, 1809, 1818, 1737
1369, 1729, 1810, 1819, 1738, 1730, 1811, 1820, 1739
1370, 1730, 1811, 1820, 1739, 1731, 1812, 1821, 1740
1371, 1731, 1812, 1821, 1740, 1732, 1813, 1822, 1741
1372, 1732, 1813, 1822, 1741, 1733, 1814, 1823, 1742
1373, 1733, 1814, 1823, 1742, 1734, 1815, 1824, 1743
1374, 1734, 1815, 1824, 1743, 1735, 1816, 1825, 1744
1375, 1735, 1816, 1825, 1744, 1736, 1817, 1826, 1745
1376, 1736, 1817, 1826, 1745, 1737, 1818, 1827, 1746
1377, 1738, 1819, 1828, 1747, 1739, 1820, 1829, 1748
1378, 1739, 1820, 1829, 1748, 1740, 1821, 1830, 1749
1379, 1740, 1821, 1830, 1749, 1741, 1822, 1831, 1750
1380, 1741, 1822, 1831, 1750, 1742, 1823, 1832, 1751
1381, 1742, 1823, 1832, 1751, 1743, 1824, 1833, 1752
1382, 1743, 1824, 1833, 1752, 1744, 1825, 1834, 1753
1383, 1744, 1825, 1834, 1753, 1745, 1826, 1835, 1754
1384, 1745, 1826, 1835, 1754, 1746, 1827, 1836, 1755
1385, 1747, 1828, 1837, 1756, 1748, 1829, 1838, 1757
1386, 1748, 1829, 1838, 1757, 1749, 1830, 1839, 1758
1387, 1749, 1830, 1839, 1758, 1750, 1831, 1840, 1759
1388, 1750, 1831, 1840, 1759, 1751, 1832, 1841, 1760
1389, 1751, 1832, 1841, 1760, 1752, 1833, 1842, 1761
1390, 1752, 1833, 1842, 1761, 1753, 1834, 1843, 1762
1391, 1753, 1834, 1843, 1762, 1754, 1835, 1844, 1763
1392, 1754, 1835, 1844, 1763, 1755, 1836, 1845, 1764
1393, 1756, 1837, 1846, 1765, 1757, 1838, 1847, 1766
1394, 1757, 1838, 1847, 1766, 1758, 1839, 1848, 1767
1395, 1758, 1839, 1848, 1767, 1759, 1840, 1849, 1768
1396, 1759, 1840, 1849, 1768, 1760, 1841, 1850, 1769
1397, 1760, 1841, 1850, 1769, 1761, 1842, 1851, 1770
1398, 1761, 1842, 1851, 1770, 1762, 1843, 1852, 1771
1399, 1762, 1843, 1852, 1771, 1763, 1844, 1853, 1772
1400, 1763, 1844, 1853, 1772, 1764, 1845, 1854, 1773
1401, 1765, 1846, 1855, 1774, 1766, 1847, 1856, 1775
1402, 1766, 1847, 1856, 1775, 1767, 1848, 1857, 1776
1403, 1767, 1848, 1857, 1776, 1768, 1849, 1858, 1777
1404, 1768, 1849, 1858, 1777, 1769, 1850, 1859, 1778
1405, 1769, 1850, 1859, 1778, 1770, 1851, 1860, 1779
1406, 1770, 1851, 1860, 1779, 1771, 1852, 1861, 1780
1407, 1771, 1852, 1861, 1780, 1772, 1853, 1862, 1781
1408, 1772, 1853, 1862, 1781, 1773, 1854, 1863, 1782
1409, 1783, 1864, 1873, 1792, 1784, 1865, 1874, 1793
1410, 1784, 1865, 1874, 1793, 1785, 1866, 1875, 1794
1411, 1785, 1866, 1875, 1794, 1786, 1867, 1876, 1795
1412, 1786, 1867, 1876, 1795, 1787, 1868, 1877, 1796
1413, 1787, 1868, 1877, 1796, 1788, 1869, 1878, 1797
1414, 1788, 1869, 1878, 1797, 1789, 1870, 1879, 1798
1415, 1789, 1870, 1879, 1798, 1790, 1871, 1880, 1799
1416, 1790, 1871, 1880, 1799, 1791, 1872, 1881, 1800
1417, 1792, 1873, 1882, 1801, 1793, 1874, 1883, 1802
1418, 1793, 1874, 1883, 1802, 1794, 1875, 1884, 1803
1419, 1794, 1875, 1884, 1803, 1795, 1876, 1885, 1804
1420, 1795, 1876, 1885, 1804, 1796, 1877, 1886, 1805
1421, 1796, 1877, 1886, 1805, 1797, 1878, 1887, 1806
1422, 1797, 1878, 1887, 1806, 1798, 1879, 1888, 1807
1423, 1798, 1879, 1888, 1807, 1799, 1880, 1889, 1808
1424, 1799, 1880, 1889, 1808, 1800, 1881, 1890, 1809
1425, 1801, 1882, 1891, 1810, 1802, 1883, 1892, 1811
1426, 1802, 1883, 1892, 1811, 1803, 1884, 1893, 1812
1427, 1803, 1884, 1893, 1812, 1804, 1885, 1894, 1813
1428, 1804, 1885, 1894, 1813, 1805, 1886, 1895, 1814
1429, 1805, 1886, 1895, 1814, 1806, 1887, 1896, 1815
1430, 1806, 1887, 1896, 1815, 1807, 1888, 1897, 1816
1431, 1807, 1888, 1897, 1816, 1808, 1889, 1898, 1817
1432, 1808, 1889, 1898, 1817, 1809, 1890, 1899, 1818
1433, 1810, 1891, 1900, 1819, 1811, 1892, 1901, 1820
1434, 1811, 1892, 1901, 1820, 1812, 1893, 1902, 1821
1435, 1812, 1893, 1902, 1821, 1813, 1894, 1903, 1822
1436, 1813, 1894, 1903, 1822, 1814, 1895, 1904, 1823
1437, 1814, 1895, 1904, 1823, 1815, 1896, 1905, 1824
1438, 1815, 1896, 1905, 1824, 1816, 1897, 1906, 1825
1439, 1816, 1897, 1906, 1825, 1817, 1898, 1907, 1826
1440, 1817, 1898, 1907, 1826, 1818, 1899, 1908, 1827
1441, 1819, 1900, 1909, 1828, 1820, 1901, 1910, 1829
1442, 1820, 1901, 1910, 1829, 1821, 1902, 1911, 1830
1443, 1821, 1902, 1911, 1830, 1822, 1903, 1912, 1831
1444, 1822, 1903, 1912, 1831, 1823, 1904, 1913, 1832
1445, 1823, 1904, 1913, 1832, 1824, 1905, 1914, 1833
1446, 1824, 1905, 1914, 1833, 1825, 1906, 1915, 1834
1447, 1825, 1906, 1915, 1834, 1826, 1907, 1916, 1835
1448, 1826, 1907, 1916, 1835, 1827, 1908, 1917, 1836
1449, 1828, 1909, 1918, 1837, 1829, 1910, 1919, 1838
1450, 1829, 1910, 1919, 1838, 1830, 1911, 1920, 1839
1451, 1830, 1911, 1920, 1839, 1831, 1912, 1921, 1840
1452, 1831, 1912, 1921, 1840, 1832, 1913, 1922, 1841
1453, 1832, 1913, 1922, 1841, 1833, 1914, 1923, 1842
1454, 1833, 1914, 1923, 1842, 1834, 1915, 1924, 1843
1455, 1834, 1915, 1924, 1843, 1835, 1916, 1925, 1844
1456, 1835, 1916, 1925, 1844, 1836, 1917, 1926, 1845
1457, 1837, 1918, 1927, 1846, 1838, 1919, 1928, 1847
1458, 1838, 1919, 1928, 1847, 1839, 1920, 1929, 1848
1459, 1839, 1920, 1929, 1848, 1840, 1921, 1930, 1849
1460, 1840, 1921, 1930, 1849, 1841, 1922, 1931, 1850
1461, 1841, 1922, 1931, 1850, 1842, 1923, 1932, 1851
1462, 1842, 1923, 1932, 1851, 1843, 1924, 1933, 1852
1463, 1843, 1924, 1933, 1852, 1844, 1925, 1934, 1853
1464, 1844, 1925, 1934, 1853, 1845, 1926, 1935, 1854
1465, 1846, 1927, 1936, 1855, 1847, 1928, 1937, 1856
1466, 1847, 1928, 1937, 1856, 1848, 1929, 1938, 1857
1467, 1848, 1929, 1938, 1857, 1849, 1930, 1939, 1858
1468, 1849, 1930, 1939, 1858, 1850, 1931, 1940, 1859
1469, 1850, 1931, 1940, 1859, 1851, 1932, 1941, 1860
1470, 1851, 1932, 1941, 1860, 1852, 1933, 1942, 1861
1471, 1852, 1933, 1942, 1861, 1853, 1934, 1943, 1862
1472, 1853, 1934, 1943, 1862, 1854, 1935, 1944, 1863
1473, 1864, 1945, 1954, 1873, 1865, 1946, 1955, 1874
1474, 1865, 1946, 1955, 1874, 1866, 1947, 1956, 1875
1475, 1866, 1947, 1956, 1875, 1867, 1948, 1957, 1876
1476, 1867, 1948, 1957, 1876, 1868, 1949, 1958, 1877
1477, 1868, 1949, 1958, 1877, 1869, 1950, 1959, 1878
1478, 1869, 1950, 1959, 1878, 1870, 1951, 1960, 1879
1479, 1870, 1951, 1960, 1879, 1871, 1952, 1961, 1880
1480, 1871, 1952, 1961, 1880, 1872, 1953, 1962, 1881
1481, 1873, 1954, 1963, 1882, 1874, 1955, 1964, 1883
1482, 1874, 1955, 1964, 1883, 1875, 1956, 1965, 1884
1483, 1875, 1956, 1965, 1884, 1876, 1957, 1966, 1885
1484, 1876, 1957, 1966, 1885, 1877, 1958, 1967, 1886
1485, 1877, 1958, 1967, 1886, 1878, 1959, 1968, 1887
1486, 1878, 1959, 1968, 1887, 1879, 1960, 1969, 1888
1487, 1879, 1960, 1969, 1888, 1880, 1961, 1970, 1889
1488, 1880, 1961, 1970, 1889, 1881, 1962, 1971, 1890
1489, 1882, 1963, 1972, 1891, 1883, 1964, 1973, 1892
1490, 1883, 1964, 1973, 1892, 1884, 1965, 1974, 1893
1491, 1884, 1965, 1974, 1893, 1885, 1966, 1975, 1894
1492, 1885, 1966, 1975, 1894, 1886, 1967, 1976, 1895
1493, 1886, 1967, 1976, 1895, 1887, 1968, 1977, 1896
1494, 1887, 1968, 1977, 1896, 1888, 1969, 1978, 1897
1495, 1888, 1969, 1978, 1897, 1889, 1970, 1979, 1898
1496, 1889, 1970, 1979, 1898, 1890, 1971, 1980, 1899
1497, 1891, 1972, 1981, 1900, 1892, 1973, 1982, 1901
1498, 1892, 1973, 1982, 1901, 1893, 1974, 1983, 1902
1499, 1893, 1974, 1983, 1902, 1894, 1975, 1984, 1903
1500, 1894, 1975, 1984, 1903, 1895, 1976, 1985, 1904
1501, 1895, 1976, 1985, 1904, 1896, 1977, 1986, 1905
1502, 1896, 1977, 1986, 1905, 1897, 1978, 1987, 1906
1503, 1897, 1978, 1987, 1906, 1898, 1979, 1988, 1907
1504, 1898, 1979, 1988, 1907, 1899, 1980, 1989, 1908
1505, 1900, 1981, 1990, 1909, 1901, 1982, 1991, 1910
1506, 1901, 1982, 1991, 1910, 1902, 1983, 1992, 1911
1507, 1902, 1983, 1992, 1911, 1903, 1984, 1993, 1912
1508, 1903, 1984, 1993, 1912, 1904, 1985, 1994, 1913
1509, 1904, 1985, 1994, 1913, 1905, 1986, 1995, 1914
1510, 1905, 1986, 1995, 1914, 1906, 1987, 1996, 1915
1511, 1906, 1987, 1996, 1915, 1907, 1988, 1997, 1916
1512, 1907, 1988, 1997, 1916, 1908, 1989, 1998, 1917
1513, 1909, 1990, 1999, 1918, 1910, 1991, 2000, 1919
1514, 1910, 1991, 2000, 1919, 1911, 1992, 2001, 1920
1515, 1911, 1992, 2001, 1920, 1912, 1993, 2002, 1921
1516, 1912, 1993, 2002, 1921, 1913, 1994, 2003, 1922
1517, 1913, 1994, 2003, 1922, 1914, 1995, 2004, 1923
1518, 1914, 1995, 2004, 1923, 1915, 1996, 2005, 1924
1519, 1915, 1996, 2005, 1924, 1916, 1997, 2006, 1925
1520, 1916, 1997, 2006, 1925, 1917, 1998, 2007, 1926
1521, 1918, 1999, 2008, 1927, 1919, 2000, 2009, 1928
1522, 1919, 2000, 2009, 1928, 1920, 2001, 2010, 1929
1523, 1920, 2001, 2010, 1929, 1921, 2002, 2011, 1930
1524, 1921, 2002, 2011, 1930, 1922, 2003, 2012, 1931
1525, 1922, 2003, 2012, 1931, 1923, 2004, 2013, 1932
1526, 1923, 2004, 2013, 1932, 1924, 2005, 2014, 1933
1527, 1924, 2005, 2014, 1933, 1925, 2006, 2015, 1934
1528, 1925, 2006, 2015, 1934, 1926, 2007, 2016, 1935
1529, 1927, 2008, 2017, 1936, 1928, 2009, 2018, 1937
1530, 1928, 2009, 2018, 1937, 1929, 2010, 2019, 1938
1531, 1929, 2010, 2019, 1938, 1930, 2011, 2020, 1939
1532, 1930, 2011, 2020, 1939, 1931, 2012, 2021, 1940
1533, 1931, 2012, 2021, 1940, 1932, 2013, 2022, 1941
1534, 1932, 2013, 2022, 1941, 1933, 2014, 2023, 1942
1535, 1933, 2014, 2023, 1942, 1934, 2015, 2024, 1943
1536, 1934, 2015, 2024, 1943, 1935, 2016, 2025, 1944
1537, 1945, 2026, 2035, 1954, 1946, 2027, 2036, 1955
1538, 1946, 2027, 2036, 1955, 1947, 2028, 2037, 1956
1539, 1947, 2028, 2037, 1956, 1948, 2029, 2038, 1957
1540, 1948, 2029, 2038, 1957, 1949, 2030, 2039, 1958
1541, 1949, 2030, 2039, 1958, 1950, 2031, 2040, 1959
1542, 1950, 2031, 2040, 1959, 1951, 2032, 2041, 1960
1543, 1951, 2032, 2041, 1960, 1952, 2033, 2042, 1961
1544, 1952, 2033, 2042, 1961, 1953, 2034, 2043, 1962
1545, 1954, 2035, 2044, 1963, 1955, 2036, 2045, 1964
1546, 1955, 2036, 2045, 1964, 1956, 2037, 2046, 1965
1547, 1956, 2037, 2046, 1965, 1957, 2038, 2047, 1966
1548, 1957, 2038, 2047, 1966, 1958, 2039, 2048, 1967
1549, 1958, 2039, 2048, 1967, 1959, 2040, 2049, 1968
1550, 1959, 2040, 2049, 1968, 1960, 2041, 2050, 1969
1551, 1960, 2041, 2050, 1969, 1961, 2042, 2051, 1970
1552, 1961, 2042, 2051, 1970, 1962, 2043, 2052, 1971
1553, 1963, 2044, 2053, 1972, 1964, 2045, 2054, 1973
1554, 1964, 2045, 2054, 1973, 1965, 2046, 2055, 1974
1555, 1965, 2046, 2055, 1974, 1966, 2047, 2056, 1975
1556, 1966, 2047, 2056, 1975, 1967, 2048, 2057, 1976
1557, 1967, 2048, 2057, 1976, 1968, 2049, 2058, 1977
1558, 1968, 2049, 2058, 1977, 1969, 2050, 2059, 1978
1559, 1969, 2050, 2059, 1978, 1970, 2051, 2060, 1979
1560, 1970, 2051, 2060, 1979, 1971, 2052, 2061, 1980
1561, 1972, 2053, 2062, 1981, 1973, 2054, 2063, 1982
1562, 1973, 2054, 2063, 1982, 1974, 2055, 2064, 1983
1563, 1974, 2055, 2064, 1983, 1975, 2056, 2065, 1984
1564, 1975, 2056, 2065, 1984, 1976, 2057, 2066, 1985
1565, 1976, 2057, 2066, 1985, 1977, 2058, 2067, 1986
1566, 1977, 2058, 2067, 1986, 1978, 2059, 2068, 1987
1567, 1978, 2059, 2068, 1987, 1979, 2060, 2069, 1988
1568, 1979, 2060, 2069, 1988, 1980, 2061, 2070, 1989
1569, 1981, 2062, 2071, 1990, 1982, 2063, 2072, 1991
1570, 1982, 2063, 2072, 1991, 1983, 2064, 2073, 1992
1571, 1983, 2064, 2073, 1992, 1984, 2065, 2074, 1993
1572, 1984, 2065, 2074, 1993, 1985, 2066, 2075, 1994
1573, 1985, 2066, 2075, 1994, 1986, 2067, 2076, 1995
1574, 1986, 2067, 2076, 1995, 1987, 2068, 2077, 1996
1575, 1987, 2068, 2077, 1996, 1988, 2069, 2078, 1997
1576, 1988, 2069, 2078, 1997, 1989, 2070, 2079, 1998
1577, 1990, 2071, 2080, 1999, 1991, 2072, 2081, 2000
1578, 1991, 2072, 2081, 2000, 1992, 2073, 2082, 2001
1579, 1992, 2073, 2082, 2001, 1993, 2074, 2083, 2002
1580, 1993, 2074, 2083, 2002, 1994, 2075, 2084, 2003
1581, 1994, 2075, 2084, 2003, 1995, 2076, 2085, 2004
1582, 1995, 2076, 2085, 2004, 1996, 2077, 2086, 2005
1583, 1996, 2077, 2086, 2005, 1997, 2078, 2087, 2006
1584, 1997, 2078, 2087, 2006, 1998, 2079, 2088, 2007
1585, 1999, 2080, 2089, 2008, 2000, 2081, 2090, 2009
1586, 2000, 2081, 2090, 2009, 2001, 2082, 2091, 2010
1587, 2001, 2082, 2091, 2010, 2002, 2083, 2092, 2011
1588, 2002, 2083, 2092, 2011, 2003, 2084, 2093, 2012
1589, 2003, 2084, 2093, 2012, 2004, 2085, 2094, 2013
1590, 2004, 2085, 2094, 2013, 2005, 2086, 2095, 2014
1591, 2005, 2086, 2095, 2014, 2006, 2087, 2096, 2015
1592, 2006, 2087, 2096, 2015, 2007, 2088, 2097, 2016
1593, 2008, 2089, 2098, 2017, 2009, 2090, 2099, 2018
1594, 2009, 2090, 2099, 2018, 2010, 2091, 2100, 2019
1595, 2010, 2091, 2100, 2019, 2011, 2092, 2101, 2020
1596, 2011, 2092, 2101, 2020, 2012, 2093, 2102, 2021
1597, 2012, 2093, 2102, 2021, 2013, 2094, 2103, 2022
1598, 2013, 2094, 2103, 2022, 2014, 2095, 2104, 2023
1599, 2014, 2095, 2104, 2023, 2015, 2096, 2105, 2024
1600, 2015, 2096, 2105, 2024, 2016, 2097, 2106, 2025
1601, 2026, 2107, 2116, 2035, 2027, 2108, 2117, 2036
1602, 2027, 2108, 2117, 2036, 2028, 2109, 2118, 2037
1603, 2028, 2109, 2118, 2037, 2029, 2110, 2119, 2038
1604, 2029, 2110, 2119, 2038, 2030, 2111, 2120, 2039
1605, 2030, 2111, 2120, 2039, 2031, 2112, 2121, 2040
1606, 2031, 2112, 2121, 2040, 2032, 2113, 2122, 2041
1607, 2032, 2113, 2122, 2041, 2033, 2114, 2123, 2042
1608, 2033, 2114, 2123, 2042, 2034, 2115, 2124, 2043
1609, 2035, 2116, 2125, 2044, 2036, 2117, 2126, 2045
1610, 2036, 2117, 2126, 2045, 2037, 2118, 2127, 2046
1611, 2037, 2118, 2127, 2046, 2038, 2119, 2128, 2047
1612, 2038, 2119, 2128, 2047, 2039, 2120, 2129, 2048
1613, 2039, 2120, 2129, 2048, 2040, 2121, 2130, 2049
1614, 2040, 2121, 2130, 2049, 2041, 2122, 2131, 2050
1615, 2041, 2122, 2131, 2050, 2042, 2123, 2132, 2051
1616, 2042, 2123, 2132, 2051, 2043, 2124, 2133, 2052
1617, 2044, 2125, 2134, 2053, 2045, 2126, 2135, 2054
1618, 2045, 2126, 2135, 2054, 2046, 2127, 2136, 2055
1619, 2046, 2127, 2136, 2055, 2047, 2128, 2137, 2056
1620, 2047, 2128, 2137, 2056, 2048, 2129, 2138, 2057
1621, 2048, 2129, 2138, 2057, 2049, 2130, 2139, 2058
1622, 2049, 2130, 2139, 2058, 2050, 2131, 2140, 2059
1623, 2050, 2131, 2140, 2059, 2051, 2132, 2141, 2060
1624, 2051, 2132, 2141, 2060, 2052, 2133, 2142, 2061
1625, 2053, 2134, 2143, 2062, 2054, 2135, 2144, 2063
1626, 2054, 2135, 2144, 2063, 2055, 2136, 2145, 2064
1627, 2055, 2136, 2145, 2064, 2056, 2137, 2146, 2065
1628, 2056, 2137, 2146, 2065, 2057, 2138, 2147, 2066
1629, 2057, 2138, 2147, 2066, 2058, 2139, 2148, 2067
1630, 2058, 2139, 2148, 2067, 2059, 2140, 2149, 2068
1631, 2059, 2140, 2149, 2068, 2060, 2141, 2150, 2069
1632, 2060, 2141, 2150, 2069, 2061, 2142, 2151, 2070
1633, 2062, 2143, 2152, 2071, 2063, 2144, 2153, 2072
1634, 2063, 2144, 2153, 2072, 2064, 2145, 2154, 2073
1635, 2064, 2145, 2154, 2073, 2065, 2146, 2155, 2074
1636, 2065, 2146, 2155, 2074, 2066, 2147, 2156, 2075
1637, 2066, 2147, 2156, 2075, 2067, 2148, 2157, 2076
1638, 2067, 2148, 2157, 2076, 2068, 2149, 2158, 2077
1639, 2068, 2149, 2158, 2077, 2069, 2150, 2159, 2078
1640, 2069, 2150, 2159, 2078, 2070, 2151, 2160, 2079
1641, 2071, 2152, 2161, 2080, 2072, 2153, 2162, 2081
1642, 2072, 2153, 2162, 2081, 2073, 2154, 2163, 2082
1643, 2073, 2154, 2163, 2082, 2074, 2155, 2164, 2083
1644, 2074, 2155, 2164, 2083, 2075, 2156, 2165, 2084
1645, 2075, 2156, 2165, 2084, 2076, 2157, 2166, 2085
1646, 2076, 2157, 2166, 2085, 2077, 2158, 2167, 2086
1647, 2077, 2158, 2167, 2086, 2078, 2159, 2168, 2087
1648, 2078, 2159, 2168, 2087, 2079, 2160, 2169, 2088
1649, 2080, 2161, 2170, 2089, 2081, 2162, 2171, 2090
1650, 2081, 2162, 2171, 2090, 2082, 2163, 2172, 2091
1651, 2082, 2163, 2172, 2091, 2083, 2164, 2173, 2092
1652, 2083, 2164, 2173, 2092, 2084, 2165, 2174, 2093
1653, 2084, 2165, 2174, 2093, 2085, 2166, 2175, 2094
1654, 2085, 2166, 2175, 2094, 2086, 2167, 2176, 2095
1655, 2086, 2167, 2176, 2095, 2087, 2168, 2177, 2096
1656, 2087, 2168, 2177, 2096, 2088, 2169, 2178, 2097
1657, 2089, 2170, 2179, 2098, 2090, 2171, 2180, 2099
1658, 2090, 2171, 2180, 2099, 2091, 2172, 2181, 2100
1659, 2091, 2172, 2181, 2100, 2092, 2173, 2182, 2101
1660, 2092, 2173, 2182, 2101, 2093, 2174, 2183, 2102
1661, 2093, 2174, 2183, 2102, 2094, 2175, 2184, 2103
1662, 2094, 2175, 2184, 2103, 2095, 2176, 2185, 2104
1663, 2095, 2176, 2185, 2104, 2096, 2177, 2186, 2105
1664, 2096, 2177, 2186, 2105, 2097, 2178, 2187, 2106
1665, 2107, 2188, 2197, 2116, 2108, 2189, 2198, 2117
1666, 2108, 2189, 2198, 2117, 2109, 2190, 2199, 2118
1667, 2109, 2190, 2199, 2118, 2110, 2191, 2200, 2119
1668, 2110, 2191, 2200, 2119, 2111, 2192, 2201, 2120
1669, 2111, 2192, 2201, 2120, 2112, 2193, 2202, 2121
1670, 2112, 2193, 2202, 2121, 2113, 2194, 2203, 2122
1671, 2113, 2194, 2203, 2122, 2114, 2195, 2204, 2123
1672, 2114, 2195, 2204, 2123, 2115, 2196, 2205, 2124
1673, 2116, 2197, 2206, 2125, 2117, 2198, 2207, 2126
1674, 2117, 2198, 2207, 2126, 2118, 2199, 2208, 2127
1675, 2118, 2199, 2208, 2127, 2119, 2200, 2209, 2128
1676, 2119, 2200, 2209, 2128, 2120, 2201, 2210, 2129
1677, 2120, 2201, 2210, 2129, 2121, 2202, 2211, 2130
1678, 2121, 2202, 2211, 2130, 2122, 2203, 2212, 2131
1679, 2122, 2203, 2212, 2131, 2123, 2204, 2213, 2132
1680, 2123, 2204, 2213, 2132, 2124, 2205, 2214, 2133
1681, 2125, 2206, 2215, 2134, 2126, 2207, 2216, 2135
1682, 2126, 2207, 2216, 2135, 2127, 2208, 2217, 2136
1683, 2127, 2208, 2217, 2136, 2128, 2209, 2218, 2137
1684, 2128, 2209, 2218, 2137, 2129, 2210, 2219, 2138
1685, 2129, 2210, 2219, 2138, 2130, 2211, 2220, 2139
1686, 2130, 2211, 2220, 2139, 2131, 2212, 2221, 2140
1687, 2131, 2212, 2221, 2140, 2132, 2213, 2222, 2141
1688, 2132, 2213, 2222, 2141, 2133, 2214, 2223, 2142
1689, 2134, 2215, 2224, 2143, 2135, 2216, 2225, 2144
1690, 2135, 2216, 2225, 2144, 2136, 2217, 2226, 2145
1691, 2136, 2217, 2226, 2145, 2137, 2218, 2227, 2146
1692, 2137, 2218, 2227, 2146, 2138, 2219, 2228, 2147
1693, 2138, 2219, 2228, 2147, 2139, 2220, 2229, 2148
1694, 2139, 2220, 2229, 2148, 2140, 2221, 2230, 2149
1695, 2140, 2221, 2230, 2149, 2141, 2222, 2231, 2150
1696, 2141, 2222, 2231, 2150, 2142, 2223, 2232, 2151
1697, 2143, 2224, 2233, 2152, 2144, 2225, 2234, 2153
1698, 2144, 2225, 2234, 2153, 2145, 2226, 2235, 2154
1699, 2145, 2226, 2235, 2154, 2146, 2227, 2236, 2155
1700, 2146, 2227, 2236, 2155, 2147, 2228, 2237, 2156
1701, 2147, 2228, 2237, 2156, 2148, 2229, 2238, 2157
1702, 2148, 2229, 2238, 2157, 2149, 2230, 2239, 2158
1703, 2149, 2230, 2239, 2158, 2150, 2231, 2240, 2159
1704, 2150, 2231, 2240, 2159, 2151, 2232, 2241, 2160
1705, 2152, 2233, 2242, 2161, 2153, 2234, 2243, 2162
1706, 2153, 2234, 2243, 2162, 2154, 2235, 2244, 2163
1707, 2154, 2235, 2244, 2163, 2155, 2236, 2245, 2164
1708, 2155, 2236, 2245, 2164, 2156, 2237, 2246, 2165
1709, 2156, 2237, 2246, 2165, 2157, 2238, 2247, 2166
1710, 2157, 2238, 2247, 2166, 2158, 2239, 2248, 2167
1711, 2158, 2239, 2248, 2167, 2159, 2240, 2249, 2168
1712, 2159, 2240, 2249, 2168, 2160, 2241, 2250, 2169
1713, 2161, 2242, 2251, 2170, 2162, 2243, 2252, 2171
1714, 2162, 2243, 2252, 2171, 2163, 2244, 2253, 2172
1715, 2163, 2244, 2253, 2172, 2164, 2245, 2254, 2173
1716, 2164, 2245, 2254, 2173, 2165, 2246, 2255, 2174
1717, 2165, 2246, 2255, 2174, 2166, 2247, 2256, 2175
1718, 2166, 2247, 2256, 2175, 2167, 2248, 2257, 2176
1719, 2167, 2248, 2257, 2176, 2168, 2249, 2258, 2177
1720, 2168, 2249, 2258, 2177, 2169, 2250, 2259, 2178
1721, 2170, 2251, 2260, 2179, 2171, 2252, 2261, 2180
1722, 2171, 2252, 2261, 2180, 2172, 2253, 2262, 2181
1723, 2172, 2253, 2262, 2181, 2173, 2254, 2263, 2182
1724, 2173, 2254, 2263, 2182, 2174, 2255, 2264, 2183
1725, 2174, 2255, 2264, 2183, 2175, 2256, 2265, 2184
1726, 2175, 2256, 2265, 2184, 2176, 2257, 2266, 2185
1727, 2176, 2257, 2266, 2185, 2177, 2258, 2267, 2186
1728, 2177, 2258, 2267, 2186, 2178, 2259, 2268, 2187
1729, 2188, 2269, 2278, 2197, 2189, 2270, 2279, 2198
1730, 2189, 2270, 2279, 2198, 2190, 2271, 2280, 2199
1731, 2190, 2271, 2280, 2199, 2191, 2272, 2281, 2200
1732, 2191, 2272, 2281, 2200, 2192, 2273, 2282, 2201
1733, 2192, 2273, 2282, 2201, 2193, 2274, 2283, 2202
1734, 2193, 2274, 2283, 2202, 2194, 2275, 2284, 2203
1735, 2194, 2275, 2284, 2203, 2195, 2276, 2285, 2204
1736, 2195, 2276, 2285, 2204, 2196, 2277, 2286, 2205
1737, 2197, 2278, 2287, 2206, 2198, 2279, 2288, 2207
1738, 2198, 2279, 2288, 2207, 2199, 2280, 2289, 2208
1739, 2199, 2280, 2289, 2208, 2200, 2281, 2290, 2209
1740, 2200, 2281, 2290, 2209, 2201, 2282, 2291, 2210
1741, 2201, 2282, 2291, 2210, 2202, 2283, 2292, 2211
1742, 2202, 2283, 2292, 2211, 2203, 2284, 2293, 2212
1743, 2203, 2284, 2293, 2212, 2204, 2285, 2294, 2213
1744, 2204, 2285, 2294, 2213, 2205, 2286, 2295, 2214
1745, 2206, 2287, 2296, 2215, 2207, 2288, 2297, 2216
1746, 2207, 2288, 2297, 2216, 2208, 2289, 2298, 2217
1747, 2208, 2289, 2298, 2217, 2209, 2290, 2299, 2218
1748, 2209, 2290, 2299, 2218, 2210, 2291, 2300, 2219
1749, 2210, 2291, 2300, 2219, 2211, 2292, 2301, 2220
1750, 2211, 2292, 2301, 2220, 2212, 2293, 2302, 2221
1751, 2212, 2293, 2302, 2221, 2213, 2294, 2303, 2222
1752, 2213, 2294, 2303, 2222, 2214, 2295, 2304, 2223
1753, 2215, 2296, 2305, 2224, 2216, 2297, 2306, 2225
1754, 2216, 2297, 2306, 2225, 2217, 2298, 2307, 2226
1755, 2217, 2298, 2307, 2226, 2218, 2299, 2308, 2227
1756, 2218, 2299, 2308, 2227, 2219, 2300, 2309, 2228
1757, 2219, 2300, 2309, 2228, 2220, 2301, 2310, 2229
1758, 2220, 2301, 2310, 2229, 2221, 2302, 2311, 2230
1759, 2221, 2302, 2311, 2230, 2222, 2303, 2312, 2231
1760, 2222, 2303, 2312, 2231, 2223, 2304, 2313, 2232
1761, 2224, 2305, 2314, 2233, 2225, 2306, 2315, 2234
1762, 2225, 2306, 2315, 2234, 2226, 2307, 2316, 2235
1763, 2226, 2307, 2316, 2235, 2227, 2308, 2317, 2236
1764, 2227, 2308, 2317, 2236, 2228, 2309, 2318, 2237
1765, 2228, 2309, 2318, 2237, 2229, 2310, 2319, 2238
1766, 2229, 2310, 2319, 2238, 2230, 2311, 2320, 2239
1767, 2230, 2311, 2320, 2239, 2231, 2312, 2321, 2240
1768, 2231, 2312, 2321, 2240, 2232, 2313, 2322, 2241
1769, 2233, 2314, 2323, 2242, 2234, 2315, 2324, 2243
1770, 2234, 2315, 2324, 2243, 2235, 2316, 2325, 2244
1771, 2235, 2316, 2325, 2244, 2236, 2317, 2326, 2245
1772, 2236, 2317, 2326, 2245, 2237, 2318, 2327, 2246
1773, 2237, 2318, 2327, 2246, 2238, 2319, 2328, 2247
1774, 2238, 2319, 2328, 2247, 2239, 2320, 2329, 2248
1775, 2239, 2320, 2329, 2248, 2240, 2321, 2330, 2249
1776, 2240, 2321, 2330, 2249, 2241, 2322, 2331, 2250
1777, 2242, 2323, 2332, 2251, 2243, 2324, 2333, 2252
1778, 2243, 2324, 2333, 2252, 2244, 2325, 2334, 2253
1779, 2244, 2325, 2334, 2253, 2245, 2326, 2335, 2254
1780, 2245, 2326, 2335, 2254, 2246, 2327, 2336, 2255
1781, 2246, 2327, 2336, 2255, 2247, 2328, 2337, 2256
1782, 2247, 2328, 2337, 2256, 2248, 2329, 2338, 2257
1783, 2248, 2329, 2338, 2257, 2249, 2330, 2339, 2258
1784, 2249, 2330, 2339, 2258, 2250, 2331, 2340, 2259
1785, 2251, 2332, 2341, 2260, 2252, 2333, 2342, 2261
1786, 2252, 2333, 2342, 2261, 2253, 2334, 2343, 2262
1787, 2253, 2334, 2343, 2262, 2254, 2335, 2344, 2263
1788, 2254, 2335, 2344, 2263, 2255, 2336, 2345, 2264
1789, 2255, 2336, 2345, 2264, 2256, 2337, 2346, 2265
1790, 2256, 2337, 2346, 2265, 2257, 2338, 2347, 2266
1791, 2257, 2338, 2347, 2266, 2258, 2339, 2348, 2267
1792, 2258, 2339, 2348, 2267, 2259, 2340, 2349, 2268
1793, 2269, 2350, 2359, 2278, 2270, 2351, 2360, 2279
1794, 2270, 2351, 2360, 2279, 2271, 2352, 2361, 2280
1795, 2271, 2352, 2361, 2280, 2272, 2353, 2362, 2281
1796, 2272, 2353, 2362, 2281, 2273, 2354, 2363, 2282
1797, 2273, 2354, 2363, 2282, 2274, 2355, 2364, 2283
1798, 2274, 2355, 2364, 2283, 2275, 2356, 2365, 2284
1799, 2275, 2356, 2365, 2284, 2276, 2357, 2366, 2285
1800, 2276, 2357, 2366, 2285, 2277, 2358, 2367, 2286
1801, 2278, 2359, 2368, 2287, 2279, 2360, 2369, 2288
1802, 2279, 2360, 2369, 2288, 2280, 2361, 2370, 2289
1803, 2280, 2361, 2370, 2289, 2281, 2362, 2371, 2290
1804, 2281, 2362, 2371, 2290, 2282, 2363, 2372, 2291
1805, 2282, 2363, 2372, 2291, 2283, 2364, 2373, 2292
1806, 2283, 2364, 2373, 2292, 2284, 2365, 2374, 2293
1807, 2284, 2365, 2374, 2293, 2285, 2366, 2375, 2294
1808, 2285, 2366, 2375, 2294, 2286, 2367, 2376, 2295
1809, 2287, 2368, 2377, 2296, 2288, 2369, 2378, 2297
1810, 2288, 2369, 2378, 2297, 2289, 2370, 2379, 2298
1811, 2289, 2370, 2379, 2298, 2290, 2371, 2380, 2299
1812, 2290, 2371, 2380, 2299, 2291, 2372, 2381, 2300
1813, 2291, 2372, 2381, 2300, 2292, 2373, 2382, 2301
1814, 2292, 2373, 2382, 2301, 2293, 2374, 2383, 2302
1815, 2293, 2374, 2383, 2302, 2294, 2375, 2384, 2303
1816, 2294, 2375, 2384, 2303, 2295, 2376, 2385, 2304
1817, 2296, 2377, 2386, 2305, 2297, 2378, 2387, 2306
1818, 2297, 2378, 2387, 2306, 2298, 2379, 2388, 2307
1819, 2298, 2379, 2388, 2307, 2299, 2380, 2389, 2308
1820, 2299, 2380, 2389, 2308, 2300, 2381, 2390, 2309
1821, 2300, 2381, 2390, 2309, 2301, 2382, 2391, 2310
1822, 2301, 2382, 2391, 2310, 2302, 2383, 2392, 2311
1823, 2302, 2383, 2392, 2311, 2303, 2384, 2393, 2312
1824, 2303, 2384, 2393, 2312, 2304, 2385, 2394, 2313
1825, 2305, 2386, 2395, 2314, 2306, 2387, 2396, 2315
1826, 2306, 2387, 2396, 2315, 2307, 2388, 2397, 2316
1827, 2307, 2388, 2397, 2316, 2308, 2389, 2398, 2317
1828, 2308, 2389, 2398, 2317, 2309, 2390, 2399, 2318
1829, 2309, 2390, 2399, 2318, 2310, 2391, 2400, 2319
1830, 2310, 2391, 2400, 2319, 2311, 2392, 2401, 2320
1831, 2311, 2392, 2401, 2320, 2312, 2393, 2402, 2321
1832, 2312, 2393, 2402, 2321, 2313, 2394, 2403, 2322
1833, 2314, 2395, 2404, 2323, 2315, 2396, 2405, 2324
1834, 2315, 2396, 2405, 2324, 2316, 2397, 2406, 2325
1835, 2316, 2397, 2406, 2325, 2317, 2398, 2407, 2326
1836, 2317, 2398, 2407, 2326, 2318, 2399, 2408, 2327
1837, 2318, 2399, 2408, 2327, 2319, 2400, 2409, 2328
1838, 2319, 2400, 2409, 2328, 2320, 2401, 2410, 2329
1839, 2320, 2401, 2410, 2329, 2321, 2402, 2411, 2330
1840, 2321, 2402, 2411, 2330, 2322, 2403, 2412, 2331
1841, 2323, 2404, 2413, 2332, 2324, 2405, 2414, 2333
1842, 2324, 2405, 2414, 2333, 2325, 2406, 2415, 2334
1843, 2325, 2406, 2415, 2334, 2326, 2407, 2416, 2335
1844, 2326, 2407, 2416, 2335, 2327, 2408, 2417, 2336
1845, 2327, 2408, 2417, 2336, 2328, 2409, 2418, 2337
1846, 2328, 2409, 2418, 2337, 2329, 2410, 2419, 2338
1847, 2329, 2410, 2419, 2338, 2330, 2411, 2420, 2339
1848, 2330, 2411, 2420, 2339, 2331, 2412, 2421, 2340
1849, 2332, 2413, 2422, 2341, 2333, 2414, 2423, 2342
1850, 2333, 2414, 2423, 2342, 2334, 2415, 2424, 2343
1851, 2334, 2415, 2424, 2343, 2335, 2416, 2425, 2344
1852, 2335, 2416, 2425, 2344, 2336, 2417, 2426, 2345
1853, 2336, 2417, 2426, 2345, 2337, 2418, 2427, 2346
1854, 2337, 2418, 2427, 2346, 2338, 2419, 2428, 2347
1855, 2338, 2419, 2428, 2347, 2339, 2420, 2429, 2348
1856, 2339, 2420, 2429, 2348, 2340, 2421, 2430, 2349
1857, 2350, 2431, 2440, 2359, 2351, 2432, 2441, 2360
1858, 2351, 2432, 2441, 2360, 2352, 2433, 2442, 2361
1859, 2352, 2433, 2442, 2361, 2353, 2434, 2443, 2362
1860, 2353, 2434, 2443, 2362, 2354, 2435, 2444, 2363
1861, 2354, 2435, 2444, 2363, 2355, 2436, 2445, 2364
1862, 2355, 2436, 2445, 2364, 2356, 2437, 2446, 2365
1863, 2356, 2437, 2446, 2365, 2357, 2438, 2447, 2366
1864, 2357, 2438, 2447, 2366, 2358, 2439, 2448, 2367
1865, 2359, 2440, 2449, 2368, 2360, 2441, 2450, 2369
1866, 2360, 2441, 2450, 2369, 2361, 2442, 2451, 2370
1867, 2361, 2442, 2451, 2370, 2362, 2443, 2452, 2371
1868, 2362, 2443, 2452, 2371, 2363, 2444, 2453, 2372
1869, 2363, 2444, 2453, 2372, 2364, 2445, 2454, 2373
1870, 2364, 2445, 2454, 2373, 2365, 2446, 2455, 2374
1871, 2365, 2446, 2455, 2374, 2366, 2447, 2456, 2375
1872, 2366, 2447, 2456, 2375, 2367, 2448, 2457, 2376
1873, 2368, 2449, 2458, 2377, 2369, 2450, 2459, 2378
1874, 2369, 2450, 2459, 2378, 2370, 2451, 2460, 2379
1875, 2370, 2451, 2460, 2379, 2371, 2452, 2461, 2380
1876, 2371, 2452, 2461, 2380, 2372, 2453, 2462, 2381
1877, 2372, 2453, 2462, 2381, 2373, 2454, 2463, 2382
1878, 2373, 2454, 2463, 2382, 2374, 2455, 2464, 2383
1879, 2374, 2455, 2464, 2383, 2375, 2456, 2465, 2384
1880, 2375, 2456, 2465, 2384, 2376, 2457, 2466, 2385
1881, 2377, 2458, 2467, 2386, 2378, 2459, 2468, 2387
1882, 2378, 2459, 2468, 2387, 2379, 2460, 2469, 2388
1883, 2379, 2460, 2469, 2388, 2380, 2461, 2470, 2389
1884, 2380, 2461, 2470, 2389, 2381, 2462, 2471, 2390
1885, 2381, 2462, 2471, 2390, 2382, 2463, 2472, 2391
1886, 2382, 2463, 2472, 2391, 2383, 2464, 2473, 2392
1887, 2383, 2464, 2473, 2392, 2384, 2465, 2474, 2393
1888, 2384, 2465, 2474, 2393, 2385, 2466, 2475, 2394
1889, 2386, 2467, 2476, 2395, 2387, 2468, 2477, 2396
1890, 2387, 2468, 2477, 2396, 2388, 2469, 2478, 2397
1891, 2388, 2469, 2478, 2397, 2389, 2470, 2479, 2398
1892, 2389, 2470, 2479, 2398, 2390, 2471, 2480, 2399
1893, 2390, 2471, 2480, 2399, 2391, 2472, 2481, 2400
1894, 2391, 2472, 2481, 2400, 2392, 2473, 2482, 2401
1895, 2392, 2473, 2482, 2401, 2393, 2474, 2483, 2402
1896, 2393, 2474, 2483, 2402, 2394, 2475, 2484, 2403
1897, 2395, 2476, 2485, 2404, 2396, 2477, 2486, 2405
1898, 2396, 2477, 2486, 2405, 2397, 2478, 2487, 2406
1899, 2397, 2478, 2487, 2406, 2398, 2479, 2488, 2407
1900, 2398, 2479, 2488, 2407, 2399, 2480, 2489, 2408
1901, 2399, 2480, 2489, 2408, 2400, 2481, 2490, 2409
1902, 2400, 2481, 2490, 2409, 2401, 2482, 2491, 2410
1903, 2401, 2482, 2491, 2410, 2402, 2483, 2492, 2411
1904, 2402, 2483, 2492, 2411, 2403, 2484, 2493, 2412
1905, 2404, 2485, 2494, 2413, 2405, 2486, 2495, 2414
1906, 2405, 2486, 2495, 2414, 2406, 2487, 2496, 2415
1907, 2406, 2487, 2496, 2415, 2407, 2488, 2497, 2416
1908, 2407, 2488, 2497, 2416, 2408, 2489, 2498, 2417
1909, 2408, 2489, 2498, 2417, 2409, 2490, 2499, 2418
1910, 2409, 2490, 2499, 2418, 2410, 2491, 2500, 2419
1911, 2410, 2491, 2500, 2419, 2411, 2492, 2501, 2420
1912, 2411, 2492, 2501, 2420, 2412, 2493, 2502, 2421
1913, 2413, 2494, 2503, 2422, 2414, 2495, 2504, 2423
1914, 2414, 2495, 2504, 2423, 2415, 2496, 2505, 2424
1915, 2415, 2496, 2505, 2424, 2416, 2497, 2506, 2425
1916, 2416, 2497, 2506, 2425, 2417, 2498, 2507, 2426
1917, 2417, 2498, 2507, 2426, 2418, 2499, 2508, 2427
1918, 2418, 2499, 2508, 2427, 2419, 2500, 2509, 2428
1919, 2419, 2500, 2509, 2428, 2420, 2501, 2510, 2429
1920, 2420, 2501, 2510, 2429, 2421, 2502, 2511, 2430
1921, 2431, 2512, 2521, 2440, 2432, 2513, 2522, 2441
1922, 2432, 2513, 2522, 2441, 2433, 2514, 2523, 2442
1923, 2433, 2514, 2523, 2442, 2434, 2515, 2524, 2443
1924, 2434, 2515, 2524, 2443, 2435, 2516, 2525, 2444
1925, 2435, 2516, 2525, 2444, 2436, 2517, 2526, 2445
1926, 2436, 2517, 2526, 2445, 2437, 2518, 2527, 2446
1927, 2437, 2518, 2527, 2446, 2438, 2519, 2528, 2447
1928, 2438, 2519, 2528, 2447, 2439, 2520, 2529, 2448
1929, 2440, 2521, 2530, 2449, 2441, 2522, 2531, 2450
1930, 2441, 2522, 2531, 2450, 2442, 2523, 2532, 2451
1931, 2442, 2523, 2532, 2451, 2443, 2524, 2533, 2452
1932, 2443, 2524, 2533, 2452, 2444, 2525, 2534, 2453
1933, 2444, 2525, 2534, 2453, 2445, 2526, 2535, 2454
1934, 2445, 2526, 2535, 2454, 2446, 2527, 2536, 2455
1935, 2446, 2527, 2536, 2455, 2447, 2528, 2537, 2456
1936, 2447, 2528, 2537, 2456, 2448, 2529, 2538, 2457
1937, 2449, 2530, 2539, 2458, 2450, 2531, 2540, 2459
1938, 2450, 2531, 2540, 2459, 2451, 2532, 2541, 2460
1939, 2451, 2532, 2541, 2460, 2452, 2533, 2542, 2461
1940, 2452, 2533, 2542, 2461, 2453, 2534, 2543, 2462
1941, 2453, 2534, 2543, 2462, 2454, 2535, 2544, 2463
1942, 2454, 2535, 2544, 2463, 2455, 2536, 2545, 2464
1943, 2455, 2536, 2545, 2464, 2456, 2537, 2546, 2465
1944, 2456, 2537, 2546, 2465, 2457, 2538, 2547, 2466
1945, 2458, 2539, 2548, 2467, 2459, 2540, 2549, 2468
1946, 2459, 2540, 2549, 2468, 2460, 2541, 2550, 2469
1947, 2460, 2541, 2550, 2469, 2461, 2542, 2551, 2470
1948, 2461, 2542, 2551, 2470, 2462, 2543, 2552, 2471
1949, 2462, 2543, 2552, 2471, 2463, 2544, 2553, 2472
1950, 2463, 2544, 2553, 2472, 2464, 2545, 2554, 2473
1951, 2464, 2545, 2554, 2473, 2465, 2546, 2555, 2474
1952, 2465, 2546, 2555, 2474, 2466, 2547, 2556, 2475
1953, 2467, 2548, 2557, 2476, 2468, 2549, 2558, 2477
1954, 2468, 2549, 2558, 2477, 2469, 2550, 2559, 2478
1955, 2469, 2550, 2559, 2478, 2470, 2551, 2560, 2479
1956, 2470, 2551, 2560, 2479, 2471, 2552, 2561, 2480
1957, 2471, 2552, 2561, 2480, 2472, 2553, 2562, 2481
1958, 2472, 2553, 2562, 2481, 2473, 2554, 2563, 2482
1959, 2473, 2554, 2563, 2482, 2474, 2555, 2564, 2483
1960, 2474, 2555, 2564, 2483, 2475, 2556, 2565, 2484
1961, 2476, 2557, 2566, 2485, 2477, 2558, 2567, 2486
1962, 2477, 2558, 2567, 2486, 2478, 2559, 2568, 2487
1963, 2478, 2559, 2568, 2487, 2479, 2560, 2569, 2488
1964, 2479, 2560, 2569, 2488, 2480, 2561, 2570, 2489
1965, 2480, 2561, 2570, 2489, 2481, 2562, 2571, 2490
1966, 2481, 2562, 2571, 2490, 2482, 2563, 2572, 2491
1967, 2482, 2563, 2572, 2491, 2483, 2564, 2573, 2492
1968, 2483, 2564, 2573, 2492, 2484, 2565, 2574, 2493
1969, 2485, 2566, 2575, 2494, 2486, 2567, 2576, 2495
1970, 2486, 2567, 2576, 2495, 2487, 2568, 2577, 2496
1971, 2487, 2568, 2577, 2496, 2488, 2569, 2578, 2497
1972, 2488, 2569, 2578, 2497, 2489, 2570, 2579, 2498
1973, 2489, 2570, 2579, 2498, 2490, 2571, 2580, 2499
1974, 2490, 2571, 2580, 2499, 2491, 2572, 2581, 2500
1975, 2491, 2572, 2581, 2500, 2492, 2573, 2582, 2501
1976, 2492, 2573, 2582, 2501, 2493, 2574, 2583, 2502
1977, 2494, 2575, 2584, 2503, 2495, 2576, 2585, 2504
1978, 2495, 2576, 2585, 2504, 2496, 2577, 2586, 2505
1979, 2496, 2577, 2586, 2505, 2497, 2578, 2587, 2506
1980, 2497, 2578, 2587, 2506, 2498, 2579, 2588, 2507
1981, 2498, 2579, 2588, 2507, 2499, 2580, 2589, 2508
1982, 2499, 2580, 2589, 2508, 2500, 2581, 2590, 2509
1983, 2500, 2581, 2590, 2509, 2501, 2582, 2591, 2510
1984, 2501, 2582, 2591, 2510, 2502, 2583, 2592, 2511
1985, 2512, 2593, 2602, 2521, 2513, 2594, 2603, 2522
1986, 2513, 2594, 2603, 2522, 2514, 2595, 2604, 2523
1987, 2514, 2595, 2604, 2523, 2515, 2596, 2605, 2524
1988, 2515, 2596, 2605, 2524, 2516, 2597, 2606, 2525
1989, 2516, 2597, 2606, 2525, 2517, 2598, 2607, 2526
1990, 2517, 2598, 2607, 2526, 2518, 2599, 2608, 2527
1991, 2518, 2599, 2608, 2527, 2519, 2600, 2609, 2528
1992, 2519, 2600, 2609, 2528, 2520, 2601, 2610, 2529
1993, 2521, 2602, 2611, 2530, 2522, 2603, 2612, 2531
1994, 2522, 2603, 2612, 2531, 2523, 2604, 2613, 2532
1995, 2523, 2604, 2613, 2532, 2524, 2605, 2614, 2533
1996, 2524, 2605, 2614, 2533, 2525, 2606, 2615, 2534
1997, 2525, 2606, 2615, 2534, 2526, 2607, 2616, 2535
1998, 2526, 2607, 2616, 2535, 2527, 2608, 2617, 2536
1999, 2527, 2608, 2617, 2536, 2528, 2609, 2618, 2537
2000, 2528, 2609, 2618, 2537, 2529, 2610, 2619, 2538
2001, 2530, 2611, 2620, 2539, 2531, 2612, 2621, 2540
2002, 2531, 2612, 2621, 2540, 2532, 2613, 2622, 2541
2003, 2532, 2613, 2622, 2541, 2533, 2614, 2623, 2542
2004, 2533, 2614, 2623, 2542, 2534, 2615, 2624, 2543
2005, 2534, 2615, 2624, 2543, 2535, 2616, 2625, 2544
2006, 2535, 2616, 2625, 2544, 2536, 2617, 2626, 2545
2007, 2536, 2617, 2626, 2545, 2537, 2618, 2627, 2546
2008, 2537, 2618, 2627, 2546, 2538, 2619, 2628, 2547
2009, 2539, 2620, 2629, 2548, 2540, 2621, 2630, 2549
2010, 2540, 2621, 2630, 2549, 2541, 2622, 2631, 2550
2011, 2541, 2622, 2631, 2550, 2542, 2623, 2632, 2551
2012, 2542, 2623, 2632, 2551, 2543, 2624, 2633, 2552
2013, 2543, 2624, 2633, 2552, 2544, 2625, 2634, 2553
2014, 2544, 2625, 2634, 2553, 2545, 2626, 2635, 2554
2015, 2545, 2626, 2635, 2554, 2546, 2627, 2636, 2555
2016, 2546, 2627, 2636, 2555, 2547, 2628, 2637, 2556
2017, 2548, 2629, 2638, 2557, 2549, 2630, 2639, 2558
2018, 2549, 2630, 2639, 2558, 2550, 2631, 2640, 2559
2019, 2550, 2631, 2640, 2559, 2551, 2632, 2641, 2560
2020, 2551, 2632, 2641, 2560, 2552, 2633, 2642, 2561
2021, 2552, 2633, 2642, 2561, 2553, 2634, 2643, 2562
2022, 2553, 2634, 2643, 2562, 2554, 2635, 2644, 2563
2023, 2554, 2635, 2644, 2563, 2555, 2636, 2645, 2564
2024, 2555, 2636, 2645, 2564, 2556, 2637, 2646, 2565
2025, 2557, 2638, 2647, 2566, 2558, 2639, 2648, 2567
2026, 2558, 2639, 2648, 2567, 2559, 2640, 2649, 2568
2027, 2559, 2640, 2649, 2568, 2560, 2641, 2650, 2569
2028, 2560, 2641, 2650, 2569, 2561, 2642, 2651, 2570
2029, 2561, 2642, 2651, 2570, 2562, 2643, 2652, 2571
2030, 2562, 2643, 2652, 2571, 2563, 2644, 2653, 2572
2031, 2563, 2644, 2653, 2572, 2564, 2645, 2654, 2573
2032, 2564, 2645, 2654, 2573, 2565, 2646, 2655, 2574
2033, 2566, 2647, 2656, 2575, 2567, 2648, 2657, 2576
2034, 2567, 2648, 2657, 2576, 2568, 2649, 2658, 2577
2035, 2568, 2649, 2658, 2577, 2569, 2650, 2659, 2578
2036, 2569, 2650, 2659, 2578, 2570, 2651, 2660, 2579
2037, 2570, 2651, 2660, 2579, 2571, 2652, 2661, 2580
2038, 2571, 2652, 2661, 2580, 2572, 2653, 2662, 2581
2039, 2572, 2653, 2662, 2581, 2573, 2654, 2663, 2582
2040, 2573, 2654, 2663, 2582, 2574, 2655, 2664, 2583
2041, 2575, 2656, 2665, 2584, 2576, 2657, 2666, 2585
2042, 2576, 2657, 2666, 2585, 2577, 2658, 2667, 2586
2043, 2577, 2658, 2667, 2586, 2578, 2659, 2668, 2587
2044, 2578, 2659, 2668, 2587, 2579, 2660, 2669, 2588
2045, 2579, 2660, 2669, 2588, 2580, 2661, 2670, 2589
2046, 2580, 2661, 2670, 2589, 2581, 2662, 2671, 2590
2047, 2581, 2662, 2671, 2590, 2582, 2663, 2672, 2591
2048, 2582, 2663, 2672, 2591, 2583, 2664, 2673, 2592
2049, 2593, 2674, 2683, 2602, 2594, 2675, 2684, 2603
2050, 2594, 2675, 2684, 2603, 2595, 2676, 2685, 2604
2051, 2595, 2676, 2685, 2604, 2596, 2677, 2686, 2605
2052, 2596, 2677, 2686, 2605, 2597, 2678, 2687, 2606
2053, 2597, 2678, 2687, 2606, 2598, 2679, 2688, 2607
2054, 2598, 2679, 2688, 2607, 2599, 2680, 2689, 2608
2055, 2599, 2680, 2689, 2608, 2600, 2681, 2690, 2609
2056, 2600, 2681, 2690, 2609, 2601, 2682, 2691, 2610
2057, 2602, 2683, 2692, 2611, 2603, 2684, 2693, 2612
2058, 2603, 2684, 2693, 2612, 2604, 2685, 2694, 2613
2059, 2604, 2685, 2694, 2613, 2605, 2686, 2695, 2614
2060, 2605, 2686, 2695, 2614, 2606, 2687, 2696, 2615
2061, 2606, 2687, 2696, 2615, 2607, 2688, 2697, 2616
2062, 2607, 2688, 2697, 2616, 2608, 2689, 2698, 2617
2063, 2608, 2689, 2698, 2617, 2609, 2690, 2699, 2618
2064, 2609, 2690, 2699, 2618, 2610, 2691, 2700, 2619
2065, 2611, 2692, 2701, 2620, 2612, 2693, 2702, 2621
2066, 2612, 2693, 2702, 2621, 2613, 2694, 2703, 2622
2067, 2613, 2694, 2703, 2622, 2614, 2695, 2704, 2623
2068, 2614, 2695, 2704, 2623, 2615, 2696, 2705, 2624
2069, 2615, 2696, 2705, 2624, 2616, 2697, 2706, 2625
2070, 2616, 2697, 2706, 2625, 2617, 2698, 2707, 2626
2071, 2617, 2698, 2707, 2626, 2618, 2699, 2708, 2627
2072, 2618, 2699, 2708, 2627, 2619, 2700, 2709, 2628
2073, 2620, 2701, 2710, 2629, 2621, 2702, 2711, 2630
2074, 2621, 2702, 2711, 2630, 2622, 2703, 2712, 2631
2075, 2622, 2703, 2712, 2631, 2623, 2704, 2713, 2632
2076, 2623, 2704, 2713, 2632, 2624, 2705, 2714, 2633
2077, 2624, 2705, 2714, 2633, 2625, 2706, 2715, 2634
2078, 2625, 2706, 2715, 2634, 2626, 2707, 2716, 2635
2079, 2626, 2707, 2716, 2635, 2627, 2708, 2717, 2636
2080, 2627, 2708, 2717, 2636, 2628, 2709, 2718, 2637
2081, 2629, 2710, 2719, 2638, 2630, 2711, 2720, 2639
2082, 2630, 2711, 2720, 2639, 2631, 2712, 2721, 2640
2083, 2631, 2712, 2721, 2640, 2632, 2713, 2722, 2641
2084, 2632, 2713, 2722, 2641, 2633, 2714, 2723, 2642
2085, 2633, 2714, 2723, 2642, 2634, 2715, 2724, 2643
2086, 2634, 2715, 2724, 2643, 2635, 2716, 2725, 2644
2087, 2635, 2716, 2725, 2644, 2636, 2717, 2726, 2645
2088, 2636, 2717, 2726, 2645, 2637, 2718, 2727, 2646
2089, 2638, 2719, 2728, 2647, 2639, 2720, 2729, 2648
2090, 2639, 2720, 2729, 2648, 2640, 2721, 2730, 2649
2091, 2640, 2721, 2730, 2649, 2641, 2722, 2731, 2650
2092, 2641, 2722, 2731, 2650, 2642, 2723, 2732, 2651
2093, 2642, 2723, 2732, 2651, 2643, 2724, 2733, 2652
2094, 2643, 2724, 2733, 2652, 2644, 2725, 2734, 2653
2095, 2644, 2725, 2734, 2653, 2645, 2726, 2735, 2654
2096, 2645, 2726, 2735, 2654, 2646, 2727, 2736, 2655
2097, 2647, 2728, 2737, 2656, 2648, 2729, 2738, 2657
2098, 2648, 2729, 2738, 2657, 2649, 2730, 2739, 2658
2099, 2649, 2730, 2739, 2658, 2650, 2731, 2740, 2659
2100, 2650, 2731, 2740, 2659, 2651, 2732, 2741, 2660
2101, 2651, 2732, 2741, 2660, 2652, 2733, 2742, 2661
2102, 2652, 2733, 2742, 2661, 2653, 2734, 2743, 2662
2103, 2653, 2734, 2743, 2662, 2654, 2735, 2744, 2663
2104, 2654, 2735, 2744, 2663, 2655, 2736, 2745, 2664
2105, 2656, 2737, 2746, 2665, 2657, 2738, 2747, 2666
2106, 2657, 2738, 2747, 2666, 2658, 2739, 2748, 2667
2107, 2658, 2739, 2748, 2667, 2659, 2740, 2749, 2668
2108, 2659, 2740, 2749, 2668, 2660, 2741, 2750, 2669
2109, 2660, 2741, 2750, 2669, 2661, 2742, 2751, 2670
2110, 2661, 2742, 2751, 2670, 2662, 2743, 2752, 2671
2111, 2662, 2743, 2752, 2671, 2663, 2744, 2753, 2672
2112, 2663, 2744, 2753, 2672, 2664, 2745, 2754, 2673
2113, 2674, 2755, 2764, 2683, 2675, 2756, 2765, 2684
2114, 2675, 2756, 2765, 2684, 2676, 2757, 2766, 2685
2115, 2676, 2757, 2766, 2685, 2677, 2758, 2767, 2686
2116, 2677, 2758, 2767, 2686, 2678, 2759, 2768, 2687
2117, 2678, 2759, 2768, 2687, 2679, 2760, 2769, 2688
2118, 2679, 2760, 2769, 2688, 2680, 2761, 2770, 2689
2119, 2680, 2761, 2770, 2689, 2681, 2762, 2771, 2690
2120, 2681, 2762, 2771, 2690, 2682, 2763, 2772, 2691
2121, 2683, 2764, 2773, 2692, 2684, 2765, 2774, 2693
2122, 2684, 2765, 2774, 2693, 2685, 2766, 2775, 2694
2123, 2685, 2766, 2775, 2694, 2686, 2767, 2776, 2695
2124, 2686, 2767, 2776, 2695, 2687, 2768, 2777, 2696
2125, 2687, 2768, 2777, 2696, 2688, 2769, 2778, 2697
2126, 2688, 2769, 2778, 2697, 2689, 2770, 2779, 2698
2127, 2689, 2770, 2779, 2698, 2690, 2771, 2780, 2699
2128, 2690, 2771, 2780, 2699, 2691, 2772, 2781, 2700
2129, 2692, 2773, 2782, 2701, 2693, 2774, 2783, 2702
2130, 2693, 2774, 2783, 2702, 2694, 2775, 2784, 2703
2131, 2694, 2775, 2784, 2703, 2695, 2776, 2785, 2704
2132, 2695, 2776, 2785, 2704, 2696, 2777, 2786, 2705
2133, 2696, 2777, 2786, 2705, 2697, 2778, 2787, 2706
2134, 2697, 2778, 2787, 2706, 2698, 2779, 2788, 2707
2135, 2698, 2779, 2788, 2707, 2699, 2780, 2789, 2708
2136, 2699, 2780, 2789, 2708, 2700, 2781, 2790, 2709
2137, 2701, 2782, 2791, 2710, 2702, 2783, 2792, 2711
2138, 2702, 2783, 2792, 2711, 2703, 2784, 2793, 2712
2139, 2703, 2784, 2793, 2712, 2704, 2785, 2794, 2713
2140, 2704, 2785, 2794, 2713, 2705, 2786, 2795, 2714
2141, 2705, 2786, 2795, 2714, 2706, 2787, 2796, 2715
2142, 2706, 2787, 2796, 2715, 2707, 2788, 2797, 2716
2143, 2707, 2788, 2797, 2716, 2708, 2789, 2798, 2717
2144, 2708, 2789, 2798, 2717, 2709, 2790, 2799, 2718
2145, 2710, 2791, 2800, 2719, 2711, 2792, 2801, 2720
2146, 2711, 2792, 2801, 2720, 2712, 2793, 2802, 2721
2147, 2712, 2793, 2802, 2721, 2713, 2794, 2803, 2722
2148, 2713, 2794, 2803, 2722, 2714, 2795, 2804, 2723
2149, 2714, 2795, 2804, 2723, 2715, 2796, 2805, 2724
2150, 2715, 2796, 2805, 2724, 2716, 2797, 2806, 2725
2151, 2716, 2797, 2806, 2725, 2717, 2798, 2807, 2726
2152, 2717, 2798, 2807, 2726, 2718, 2799, 2808, 2727
2153, 2719, 2800, 2809, 2728, 2720, 2801, 2810, 2729
2154, 2720, 2801, 2810, 2729, 2721, 2802, 2811, 2730
2155, 2721, 2802, 2811, 2730, 2722, 2803, 2812, 2731
2156, 2722, 2803, 2812, 2731, 2723, 2804, 2813, 2732
2157, 2723, 2804, 2813, 2732, 2724, 2805, 2814, 2733
2158, 2724, 2805, 2814, 2733, 2725, 2806, 2815, 2734
2159, 2725, 2806, 2815, 2734, 2726, 2807, 2816, 2735
2160, 2726, 2807, 2816, 2735, 2727, 2808, 2817, 2736
2161, 2728, 2809, 2818, 2737, 2729, 2810, 2819, 2738
2162, 2729, 2810, 2819, 2738, 2730, 2811, 2820, 2739
2163, 2730, 2811, 2820, 2739, 2731, 2812, 2821, 2740
2164, 2731, 2812, 2821, 2740, 2732, 2813, 2822, 2741
2165, 2732, 2813, 2822, 2741, 2733, 2814, 2823, 2742
2166, 2733, 2814, 2823, 2742, 2734, 2815, 2824, 2743
2167, 2734, 2815, 2824, 2743, 2735, 2816, 2825, 2744
2168, 2735, 2816, 2825, 2744, 2736, 2817, 2826, 2745
2169, 2737, 2818, 2827, 2746, 2738, 2819, 2828, 2747
2170, 2738, 2819, 2828, 2747, 2739, 2820, 2829, 2748
2171, 2739, 2820, 2829, 2748, 2740, 2821, 2830, 2749
2172, 2740, 2821, 2830, 2749, 2741, 2822, 2831, 2750
2173, 2741, 2822, 2831, 2750, 2742, 2823, 2832, 2751
2174, 2742, 2823, 2832, 2751, 2743, 2824, 2833, 2752
2175, 2743, 2824, 2833, 2752, 2744, 2825, 2834, 2753
2176, 2744, 2825, 2834, 2753, 2745, 2826, 2835, 2754
2177, 2755, 2836, 2845, 2764, 2756, 2837, 2846, 2765
2178, 2756, 2837, 2846, 2765, 2757, 2838, 2847, 2766
2179, 2757, 2838, 2847, 2766, 2758, 2839, 2848, 2767
2180, 2758, 2839, 2848, 2767, 2759, 2840, 2849, 2768
2181, 2759, 2840, 2849, 2768, 2760, 2841, 2850, 2769
2182, 2760, 2841, 2850, 2769, 2761, 2842, 2851, 2770
2183, 2761, 2842, 2851, 2770, 2762, 2843, 2852, 2771
2184, 2762, 2843, 2852, 2771, 2763, 2844, 2853, 2772
2185, 2764, 2845, 2854, 2773, 2765, 2846, 2855, 2774
2186, 2765, 2846, 2855, 2774, 2766, 2847, 2856, 2775
2187, 2766, 2847, 2856, 2775, 2767, 2848, 2857, 2776
2188, 2767, 2848, 2857, 2776, 2768, 2849, 2858, 2777
2189, 2768, 2849, 2858, 2777, 2769, 2850, 2859, 2778
2190, 2769, 2850, 2859, 2778, 2770, 2851, 2860, 2779
2191, 2770, 2851, 2860, 2779, 2771, 2852, 2861, 2780
2192, 2771, 2852, 2861, 2780, 2772, 2853, 2862, 2781
2193, 2773, 2854, 2863, 2782, 2774, 2855, 2864, 2783
2194, 2774, 2855, 2864, 2783, 2775, 2856, 2865, 2784
2195, 2775, 2856, 2865, 2784, 2776, 2857, 2866, 2785
2196, 2776, 2857, 2866, 2785, 2777, 2858, 2867, 2786
2197, 2777, 2858, 2867, 2786, 2778, 2859, 2868, 2787
2198, 2778, 2859, 2868, 2787, 2779, 2860, 2869, 2788
2199, 2779, 2860, 2869, 2788, 2780, 2861, 2870, 2789
2200, 2780, 2861, 2870, 2789, 2781, 2862, 2871, 2790
2201, 2782, 2863, 2872, 2791, 2783, 2864, 2873, 2792
2202, 2783, 2864, 2873, 2792, 2784, 2865, 2874, 2793
2203, 2784, 2865, 2874, 2793, 2785, 2866, 2875, 2794
2204, 2785, 2866, 2875, 2794, 2786, 2867, 2876, 2795
2205, 2786, 2867, 2876, 2795, 2787, 2868, 2877, 2796
2206, 2787, 2868, 2877, 2796, 2788, 2869, 2878, 2797
2207, 2788, 2869, 2878, 2797, 2789, 2870, 2879, 2798
2208, 2789, 2870, 2879, 2798, 2790, 2871, 2880, 2799
2209, 2791, 2872, 2881, 2800, 2792, 2873, 2882, 2801
2210, 2792, 2873, 2882, 2801, 2793, 2874, 2883, 2802
2211, 2793, 2874, 2883, 2802, 2794, 2875, 2884, 2803
2212, 2794, 2875, 2884, 2803, 2795, 2876, 2885, 2804
2213, 2795, 2876, 2885, 2804, 2796, 2877, 2886, 2805
2214, 2796, 2877, 2886, 2805, 2797, 2878, 2887, 2806
2215, 2797, 2878, 2887, 2806, 2798, 2879, 2888, 2807
2216, 2798, 2879, 2888, 2807, 2799, 2880, 2889, 2808
2217, 2800, 2881, 2890, 2809, 2801, 2882, 2891, 2810
2218, 2801, 2882, 2891, 2810, 2802, 2883, 2892, 2811
2219, 2802, 2883, 2892, 2811, 2803, 2884, 2893, 2812
2220, 2803, 2884, 2893, 2812, 2804, 2885, 2894, 2813
2221, 2804, 2885, 2894, 2813, 2805, 2886, 2895, 2814
2222, 2805, 2886, 2895, 2814, 2806, 2887, 2896, 2815
2223, 2806, 2887, 2896, 2815, 2807, 2888, 2897, 2816
2224, 2807, 2888, 2897, 2816, 2808, 2889, 2898, 2817
2225, 2809, 2890, 2899, 2818, 2810, 2891, 2900, 2819
2226, 2810, 2891, 2900, 2819, 2811, 2892, 2901, 2820
2227, 2811, 2892, 2901, 2820, 2812, 2893, 2902, 2821
2228, 2812, 2893, 2902, 2821, 2813, 2894, 2903, 2822
2229, 2813, 2894, 2903, 2822, 2814, 2895, 2904, 2823
2230, 2814, 2895, 2904, 2823, 2815, 2896, 2905, 2824
2231, 2815, 2896, 2905, 2824, 2816, 2897, 2906, 2825
2232, 2816, 2897, 2906, 2825, 2817, 2898, 2907, 2826
2233, 2818, 2899, 2908, 2827, 2819, 2900, 2909, 2828
2234, 2819, 2900, 2909, 2828, 2820, 2901, 2910, 2829
2235, 2820, 2901, 2910, 2829, 2821, 2902, 2911, 2830
2236, 2821, 2902, 2911, 2830, 2822, 2903, 2912, 2831
2237, 2822, 2903, 2912, 2831, 2823, 2904, 2913, 2832
2238, 2823, 2904, 2913, 2832, 2824, 2905, 2914, 2833
2239, 2824, 2905, 2914, 2833, 2825, 2906, 2915, 2834
2240, 2825, 2906, 2915, 2834, 2826, 2907, 2916, 2835
2241, 2836, 2917, 2926, 2845, 2837, 2918, 2927, 2846
2242, 2837, 2918, 2927, 2846, 2838, 2919, 2928, 2847
2243, 2838, 2919, 2928, 2847, 2839, 2920, 2929, 2848
2244, 2839, 2920, 2929, 2848, 2840, 2921, 2930, 2849
2245, 2840, 2921, 2930, 2849, 2841, 2922, 2931, 2850
2246, 2841, 2922, 2931, 2850, 2842, 2923, 2932, 2851
2247, 2842, 2923, 2932, 2851, 2843, 2924, 2933, 2852
2248, 2843, 2924, 2933, 2852, 2844, 2925, 2934, 2853
2249, 2845, 2926, 2935, 2854, 2846, 2927, 2936, 2855
2250, 2846, 2927, 2936, 2855, 2847, 2928, 2937, 2856
2251, 2847, 2928, 2937, 2856, 2848, 2929, 2938, 2857
2252, 2848, 2929, 2938, 2857, 2849, 2930, 2939, 2858
2253, 2849, 2930, 2939, 2858, 2850, 2931, 2940, 2859
2254, 2850, 2931, 2940, 2859, 2851, 2932, 2941, 2860
2255, 2851, 2932, 2941, 2860, 2852, 2933, 2942, 2861
2256, 2852, 2933, 2942, 2861, 2853, 2934, 2943, 2862
2257, 2854, 2935, 2944, 2863, 2855, 2936, 2945, 2864
2258, 2855, 2936, 2945, 2864, 2856, 2937, 2946, 2865
2259, 2856, 2937, 2946, 2865, 2857, 2938, 2947, 2866
2260, 2857, 2938, 2947, 2866, 2858, 2939, 2948, 2867
2261, 2858, 2939, 2948, 2867, 2859, 2940, 2949, 2868
2262, 2859, 2940, 2949, 2868, 2860, 2941, 2950, 2869
2263, 2860, 2941, 2950, 2869, 2861, 2942, 2951, 2870
2264, 2861, 2942, 2951, 2870, 2862, 2943, 2952, 2871
2265, 2863, 2944, 2953, 2872, 2864, 2945, 2954, 2873
2266, 2864, 2945, 2954, 2873, 2865, 2946, 2955, 2874
2267, 2865, 2946, 2955, 2874, 2866, 2947, 2956, 2875
2268, 2866, 2947, 2956, 2875, 2867, 2948, 2957, 2876
2269, 2867, 2948, 2957, 2876, 2868, 2949, 2958, 2877
2270, 2868, 2949, 2958, 2877, 2869, 2950, 2959, 2878
2271, 2869, 2950, 2959, 2878, 2870, 2951, 2960, 2879
2272, 2870, 2951, 2960, 2879, 2871, 2952, 2961, 2880
2273, 2872, 2953, 2962, 2881, 2873, 2954, 2963, 2882
2274, 2873, 2954, 2963, 2882, 2874, 2955, 2964, 2883
2275, 2874, 2955, 2964, 2883, 2875, 2956, 2965, 2884
2276, 2875, 2956, 2965, 2884, 2876, 2957, 2966, 2885
2277, 2876, 2957, 2966, 2885, 2877, 2958, 2967, 2886
2278, 2877, 2958, 2967, 2886, 2878, 2959, 2968, 2887
2279, 2878, 2959, 2968, 2887, 2879, 2960, 2969, 2888
2280, 2879, 2960, 2969, 2888, 2880, 2961, 2970, 2889
2281, 2881, 2962, 2971, 2890, 2882, 2963, 2972, 2891
2282, 2882, 2963, 2972, 2891, 2883, 2964, 2973, 2892
2283, 2883, 2964, 2973, 2892, 2884, 2965, 2974, 2893
2284, 2884, 2965, 2974, 2893, 2885, 2966, 2975, 2894
2285, 2885, 2966, 2975, 2894, 2886, 2967, 2976, 2895
2286, 2886, 2967, 2976, 2895, 2887, 2968, 2977, 2896
2287, 2887, 2968, 2977, 2896, 2888, 2969, 2978, 2897
2288, 2888, 2969, 2978, 2897, 2889, 2970, 2979, 2898
2289, 2890, 2971, 2980, 2899, 2891, 2972, 2981, 2900
2290, 2891, 2972, 2981, 2900, 2892, 2973, 2982, 2901
2291, 2892, 2973, 2982, 2901, 2893, 2974, 2983, 2902
2292, 2893, 2974, 2983, 2902, 2894, 2975, 2984, 2903
2293, 2894, 2975, 2984, 2903, 2895, 2976, 2985, 2904
2294, 2895, 2976, 2985, 2904, 2896, 2977, 2986, 2905
2295, 2896, 2977, 2986, 2905, 2897, 2978, 2987, 2906
2296, 2897, 2978, 2987, 2906, 2898, 2979, 2988, 2907
2297, 2899, 2980, 2989, 2908, 2900, 2981, 2990, 2909
2298, 2900, 2981, 2990, 2909, 2901, 2982, 2991, 2910
2299, 2901, 2982, 2991, 2910, 2902, 2983, 2992, 2911
2300, 2902, 2983, 2992, 2911, 2903, 2984, 2993, 2912
2301, 2903, 2984, 2993, 2912, 2904, 2985, 2994, 2913
2302, 2904, 2985, 2994, 2913, 2905, 2986, 2995, 2914
2303, 2905, 2986, 2995, 2914, 2906, 2987, 2996, 2915
2304, 2906, 2987, 2996, 2915, 2907, 2988, 2997, 2916
2305, 2917, 2998, 3007, 2926, 2918, 2999, 3008, 2927
2306, 2918, 2999, 3008, 2927, 2919, 3000, 3009, 2928
2307, 2919, 3000, 3009, 2928, 2920, 3001, 3010, 2929
2308, 2920, 3001, 3010, 2929, 2921, 3002, 3011, 2930
2309, 2921, 3002, 3011, 2930, 2922, 3003, 3012, 2931
2310, 2922, 3003, 3012, 2931, 2923, 3004, 3013, 2932
2311, 2923, 3004, 3013, 2932, 2924, 3005, 3014, 2933
2312, 2924, 3005, 3014, 2933, 2925, 3006, 3015, 2934
2313, 2926, 3007, 3016, 2935, 2927, 3008, 3017, 2936
2314, 2927, 3008, 3017, 2936, 2928, 3009, 3018, 2937
2315, 2928, 3009, 3018, 2937, 2929, 3010, 3019, 2938
2316, 2929, 3010, 3019, 2938, 2930, 3011, 3020, 2939
2317, 2930, 3011, 3020, 2939, 2931, 3012, 3021, 2940
2318, 2931, 3012, 3021, 2940, 2932, 3013, 3022, 2941
2319, 2932, 3013, 3022, 2941, 2933, 3014, 3023, 2942
2320, 2933, 3014, 3023, 2942, 2934, 3015, 3024, 2943
2321, 2935, 3016, 3025, 2944, 2936, 3017, 3026, 2945
2322, 2936, 3017, 3026, 2945, 2937, 3018, 3027, 2946
2323, 2937, 3018, 3027, 2946, 2938, 3019, 3028, 2947
2324, 2938, 3019, 3028, 2947, 2939, 3020, 3029, 2948
2325, 2939, 3020, 3029, 2948, 2940, 3021, 3030, 2949
2326, 2940, 3021, 3030, 2949, 2941, 3022, 3031, 2950
2327, 2941, 3022, 3031, 2950, 2942, 3023, 3032, 2951
2328, 2942, 3023, 3032, 2951, 2943, 3024, 3033, 2952
2329, 2944, 3025, 3034, 2953, 2945, 3026, 3035, 2954
2330, 2945, 3026, 3035, 2954, 2946, 3027, 3036, 2955
2331, 2946, 3027, 3036, 2955, 2947, 3028, 3037, 2956
2332, 2947, 3028, 3037, 2956, 2948, 3029, 3038, 2957
2333, 2948, 3029, 3038, 2957, 2949, 3030, 3039, 2958
2334, 2949, 3030, 3039, 2958, 2950, 3031, 3040, 2959
2335, 2950, 3031, 3040, 2959, 2951, 3032, 3041, 2960
2336, 2951, 3032, 3041, 2960, 2952, 3033, 3042, 2961
2337, 2953, 3034, 3043, 2962, 2954, 3035, 3044, 2963
2338, 2954, 3035, 3044, 2963, 2955, 3036, 3045, 2964
2339, 2955, 3036, 3045, 2964, 2956, 3037, 3046, 2965
2340, 2956, 3037, 3046, 2965, 2957, 3038, 3047, 2966
2341, 2957, 3038, 3047, 2966, 2958, 3039, 3048, 2967
2342, 2958, 3039, 3048, 2967, 2959, 3040, 3049, 2968
2343, 2959, 3040, 3049, 2968, 2960, 3041, 3050, 2969
2344, 2960, 3041, 3050, 2969, 2961, 3042, 3051, 2970
2345, 2962, 3043, 3052, 2971, 2963, 3044, 3053, 2972
2346, 2963, 3044, 3053, 2972, 2964, 3045, 3054, 2973
2347, 2964, 3045, 3054, 2973, 2965, 3046, 3055, 2974
2348, 2965, 3046, 3055, 2974, 2966, 3047, 3056, 2975
2349, 2966, 3047, 3056, 2975, 2967, 3048, 3057, 2976
2350, 2967, 3048, 3057, 2976, 2968, 3049, 3058, 2977
2351, 2968, 3049, 3058, 2977, 2969, 3050, 3059, 2978
2352, 2969, 3050, 3059, 2978, 2970, 3051, 3060, 2979
2353, 2971, 3052, 3061, 2980, 2972, 3053, 3062, 2981
2354, 2972, 3053, 3062, 2981, 2973, 3054, 3063, 2982
2355, 2973, 3054, 3063, 2982, 2974, 3055, 3064, 2983
2356, 2974, 3055, 3064, 2983, 2975, 3056, 3065, 2984
2357, 2975, 3056, 3065, 2984, 2976, 3057, 3066, 2985
2358, 2976, 3057, 3066, 2985, 2977, 3058, 3067, 2986
2359, 2977, 3058, 3067, 2986, 2978, 3059, 3068, 2987
2360, 2978, 3059, 3068, 2987, 2979, 3060, 3069, 2988
2361, 2980, 3061, 3070, 2989, 2981, 3062, 3071, 2990
2362, 2981, 3062, 3071, 2990, 2982, 3063, 3072, 2991
2363, 2982, 3063, 3072, 2991, 2983, 3064, 3073, 2992
2364, 2983, 3064, 3073, 2992, 2984, 3065, 3074, 2993
2365, 2984, 3065, 3074, 2993, 2985, 3066, 3075, 2994
2366, 2985, 3066, 3075, 2994, 2986, 3067, 3076, 2995
2367, 2986, 3067, 3076, 2995, 2987, 3068, 3077, 2996
2368, 2987, 3068, 3077, 2996, 2988, 3069, 3078, 2997
2369, 2998, 3079, 3088, 3007, 2999, 3080, 3089, 3008
2370, 2999, 3080, 3089, 3008, 3000, 3081, 3090, 3009
2371, 3000, 3081, 3090, 3009, 3001, 3082, 3091, 3010
2372, 3001, 3082, 3091, 3010, 3002, 3083, 3092, 3011
2373, 3002, 3083, 3092, 3011, 3003, 3084, 3093, 3012
2374, 3003, 3084, 3093, 3012, 3004, 3085, 3094, 3013
2375, 3004, 3085, 3094, 3013, 3005, 3086, 3095, 3014
2376, 3005, 3086, 3095, 3014, 3006, 3087, 3096, 3015
2377, 3007, 3088, 3097, 3016, 3008, 3089, 3098, 3017
2378, 3008, 3089, 3098, 3017, 3009, 3090, 3099, 3018
2379, 3009, 3090, 3099, 3018, 3010, 3091, 3100, 3019
2380, 3010, 3091, 3100, 3019, 3011, 3092, 3101, 3020
2381, 3011, 3092, 3101, 3020, 3012, 3093, 3102, 3021
2382, 3012, 3093, 3102, 3021, 3013, 3094, 3103, 3022
2383, 3013, 3094, 3103, 3022, 3014, 3095, 3104, 3023
2384, 3014, 3095, 3104, 3023, 3015, 3096, 3105, 3024
2385, 3016, 3097, 3106, 3025, 3017, 3098, 3107, 3026
2386, 3017, 3098, 3107, 3026, 3018, 3099, 3108, 3027
2387, 3018, 3099, 3108, 3027, 3019, 3100, 3109, 3028
2388, 3019, 3100, 3109, 3028, 3020, 3101, 3110, 3029
2389, 3020, 3101, 3110, 3029, 3021, 3102, 3111, 3030
2390, 3021, 3102, 3111, 3030, 3022, 3103, 3112, 3031
2391, 3022, 3103, 3112, 3031, 3023, 3104, 3113, 3032
2392, 3023, 3104, 3113, 3032, 3024, 3105, 3114, 3033
2393, 3025, 3106, 3115, 3034, 3026, 3107, 3116, 3035
2394, 3026, 3107, 3116, 3035, 3027, 3108, 3117, 3036
2395, 3027, 3108, 3117, 3036, 3028, 3109, 3118, 3037
2396, 3028, 3109, 3118, 3037, 3029, 3110, 3119, 3038
2397, 3029, 3110, 3119, 3038, 3030, 3111, 3120, 3039
2398, 3030, 3111, 3120, 3039, 3031, 3112, 3121, 3040
2399, 3031, 3112, 3121, 3040, 3032, 3113, 3122, 3041
2400, 3032, 3113, 3122, 3041, 3033, 3114, 3123, 3042
2401, 3034, 3115, 3124, 3043, 3035, 3116, 3125, 3044
2402, 3035, 3116, 3125, 3044, 3036, 3117, 3126, 3045
2403, 3036, 3117, 3126, 3045, 3037, 3118, 3127, 3046
2404, 3037, 3118, 3127, 3046, 3038, 3119, 3128, 3047
2405, 3038, 3119, 3128, 3047, 3039, 3120, 3129, 3048
2406, 3039, 3120, 3129, 3048, 3040, 3121, 3130, 3049
2407, 3040, 3121, 3130, 3049, 3041, 3122, 3131, 3050
2408, 3041, 3122, 3131, 3050, 3042, 3123, 3132, 3051
2409, 3043, 3124, 3133, 3052, 3044, 3125, 3134, 3053
2410, 3044, 3125, 3134, 3053, 3045, 3126, 3135, 3054
2411, 3045, 3126, 3135, 3054, 3046, 3127, 3136, 3055
2412, 3046, 3127, 3136, 3055, 3047, 3128, 3137, 3056
2413, 3047, 3128, 3137, 3056, 3048, 3129, 3138, 3057
2414, 3048, 3129, 3138, 3057, 3049, 3130, 3139, 3058
2415, 3049, 3130, 3139, 3058, 3050, 3131, 3140, 3059
2416, 3050, 3131, 3140, 3059, 3051, 3132, 3141, 3060
2417, 3052, 3133, 3142, 3061, 3053, 3134, 3143, 3062
2418, 3053, 3134, 3143, 3062, 3054, 3135, 3144, 3063
2419, 3054, 3135, 3144, 3063, 3055, 3136, 3145, 3064
2420, 3055, 3136, 3145, 3064, 3056, 3137, 3146, 3065
2421, 3056, 3137, 3146, 3065, 3057, 3138, 3147, 3066
2422, 3057, 3138, 3147, 3066, 3058, 3139, 3148, 3067
2423, 3058, 3139, 3148, 3067, 3059, 3140, 3149, 3068
2424, 3059, 3140, 3149, 3068, 3060, 3141, 3150, 3069
2425, 3061, 3142, 3151, 3070, 3062, 3143, 3152, 3071
2426, 3062, 3143, 3152, 3071, 3063, 3144, 3153, 3072
2427, 3063, 3144, 3153, 3072, 3064, 3145, 3154, 3073
2428, 3064, 3145, 3154, 3073, 3065, 3146, 3155, 3074
2429, 3065, 3146, 3155, 3074, 3066, 3147, 3156, 3075
2430, 3066, 3147, 3156, 3075, 3067, 3148, 3157, 3076
2431, 3067, 3148, 3157, 3076, 3068, 3149, 3158, 3077
2432, 3068, 3149, 3158, 3077, 3069, 3150, 3159, 3078
2433, 3079, 3160, 3169, 3088, 3080, 3161, 3170, 3089
2434, 3080, 3161, 3170, 3089, 3081, 3162, 3171, 3090
2435, 3081, 3162, 3171, 3090, 3082, 3163, 3172, 3091
2436, 3082, 3163, 3172, 3091, 3083, 3164, 3173, 3092
2437, 3083, 3164, 3173, 3092, 3084, 3165, 3174, 3093
2438, 3084, 3165, 3174, 3093, 3085, 3166, 3175, 3094
2439, 3085, 3166, 3175, 3094, 3086, 3167, 3176, 3095
2440, 3086, 3167, 3176, 3095, 3087, 3168, 3177, 3096
2441, 3088, 3169, 3178, 3097, 3089, 3170, 3179, 3098
2442, 3089, 3170, 3179, 3098, 3090, 3171, 3180, 3099
2443, 3090, 3171, 3180, 3099, 3091, 3172, 3181, 3100
2444, 3091, 3172, 3181, 3100, 3092, 3173, 3182, 3101
2445, 3092, 3173, 3182, 3101, 3093, 3174, 3183, 3102
2446, 3093, 3174, 3183, 3102, 3094, 3175, 3184, 3103
2447, 3094, 3175, 3184, 3103, 3095, 3176, 3185, 3104
2448, 3095, 3176, 3185, 3104, 3096, 3177, 3186, 3105
2449, 3097, 3178, 3187, 3106, 3098, 3179, 3188, 3107
2450, 3098, 3179, 3188, 3107, 3099, 3180, 3189, 3108
2451, 3099, 3180, 3189, 3108, 3100, 3181, 3190, 3109
2452, 3100, 3181, 3190, 3109, 3101, 3182, 3191, 3110
2453, 3101, 3182, 3191, 3110, 3102, 3183, 3192, 3111
2454, 3102, 3183, 3192, 3111, 3103, 3184, 3193, 3112
2455, 3103, 3184, 3193, 3112, 3104, 3185, 3194, 3113
2456, 3104, 3185, 3194, 3113, 3105, 3186, 3195, 3114
2457, 3106, 3187, 3196, 3115, 3107, 3188, 3197, 3116
2458, 3107, 3188, 3197, 3116, 3108, 3189, 3198, 3117
2459, 3108, 3189, 3198, 3117, 3109, 3190, 3199, 3118
2460, 3109, 3190, 3199, 3118, 3110, 3191, 3200, 3119
2461, 3110, 3191, 3200, 3119, 3111, 3192, 3201, 3120
2462, 3111, 3192, 3201, 3120, 3112, 3193, 3202, 3121
2463, 3112, 3193, 3202, 3121, 3113, 3194, 3203, 3122
2464, 3113, 3194, 3203, 3122, 3114, 3195, 3204, 3123
2465, 3115, 3196, 3205, 3124, 3116, 3197, 3206, 3125
2466, 3116, 3197, 3206, 3125, 3117, 3198, 3207, 3126
2467, 3117, 3198, 3207, 3126, 3118, 3199, 3208, 3127
2468, 3118, 3199, 3208, 3127, 3119, 3200, 3209, 3128
2469, 3119, 3200, 3209, 3128, 3120, 3201, 3210, 3129
2470, 3120, 3201, 3210, 3129, 3121, 3202, 3211, 3130
2471, 3121, 3202, 3211, 3130, 3122, 3203, 3212, 3131
2472, 3122, 3203, 3212, 3131, 3123, 3204, 3213, 3132
2473, 3124, 3205, 3214, 3133, 3125, 3206, 3215, 3134
2474, 3125, 3206, 3215, 3134, 3126, 3207, 3216, 3135
2475, 3126, 3207, 3216, 3135, 3127, 3208, 3217, 3136
2476, 3127, 3208, 3217, 3136, 3128, 3209, 3218, 3137
2477, 3128, 3209, 3218, 3137, 3129, 3210, 3219, 3138
2478, 3129, 3210, 3219, 3138, 3130, 3211, 3220, 3139
2479, 3130, 3211, 3220, 3139, 3131, 3212, 3221, 3140
2480, 3131, 3212, 3221, 3140, 3132, 3213, 3222, 3141
2481, 3133, 3214, 3223, 3142, 3134, 3215, 3224, 3143
2482, 3134, 3215, 3224, 3143, 3135, 3216, 3225, 3144
2483, 3135, 3216, 3225, 3144, 3136, 3217, 3226, 3145
2484, 3136, 3217, 3226, 3145, 3137, 3218, 3227, 3146
2485, 3137, 3218, 3227, 3146, 3138, 3219, 3228, 3147
2486, 3138, 3219, 3228, 3147, 3139, 3220, 3229, 3148
2487, 3139, 3220, 3229, 3148, 3140, 3221, 3230, 3149
2488, 3140, 3221, 3230, 3149, 3141, 3222, 3231, 3150
2489, 3142, 3223, 3232, 3151, 3143, 3224, 3233, 3152
2490, 3143, 3224, 3233, 3152, 3144, 3225, 3234, 3153
2491, 3144, 3225, 3234, 3153, 3145, 3226, 3235, 3154
2492, 3145, 3226, 3235, 3154, 3146, 3227, 3236, 3155
2493, 3146, 3227, 3236, 3155, 3147, 3228, 3237, 3156
2494, 3147, 3228, 3237, 3156, 3148, 3229, 3238, 3157
2495, 3148, 3229, 3238, 3157, 3149, 3230, 3239, 3158
2496, 3149, 3230, 3239, 3158, 3150, 3231, 3240, 3159
2497, 3160, 3241, 3250, 3169, 3161, 3242, 3251, 3170
2498, 3161, 3242, 3251, 3170, 3162, 3243, 3252, 3171
2499, 3162, 3243, 3252, 3171, 3163, 3244, 3253, 3172
2500, 3163, 3244, 3253, 3172, 3164, 3245, 3254, 3173
2501, 3164, 3245, 3254, 3173, 3165, 3246, 3255, 3174
2502, 3165, 3246, 3255, 3174, 3166, 3247, 3256, 3175
2503, 3166, 3247, 3256, 3175, 3167, 3248, 3257, 3176
2504, 3167, 3248, 3257, 3176, 3168, 3249, 3258, 3177
2505, 3169, 3250, 3259, 3178, 3170, 3251, 3260, 3179
2506, 3170, 3251, 3260, 3179, 3171, 3252, 3261, 3180
2507, 3171, 3252, 3261, 3180, 3172, 3253, 3262, 3181
2508, 3172, 3253, 3262, 3181, 3173, 3254, 3263, 3182
2509, 3173, 3254, 3263, 3182, 3174, 3255, 3264, 3183
2510, 3174, 3255, 3264, 3183, 3175, 3256, 3265, 3184
2511, 3175, 3256, 3265, 3184, 3176, 3257, 3266, 3185
2512, 3176, 3257, 3266, 3185, 3177, 3258, 3267, 3186
2513, 3178, 3259, 3268, 3187, 3179, 3260, 3269, 3188
2514, 3179, 3260, 3269, 3188, 3180, 3261, 3270, 3189
2515, 3180, 3261, 3270, 3189, 3181, 3262, 3271, 3190
2516, 3181, 3262, 3271, 3190, 3182, 3263, 3272, 3191
2517, 3182, 3263, 3272, 3191, 3183, 3264, 3273, 3192
2518, 3183, 3264, 3273, 3192, 3184, 3265, 3274, 3193
2519, 3184, 3265, 3274, 3193, 3185, 3266, 3275, 3194
2520, 3185, 3266, 3275, 3194, 3186, 3267, 3276, 3195
2521, 3187, 3268, 3277, 3196, 3188, 3269, 3278, 3197
2522, 3188, 3269, 3278, 3197, 3189, 3270, 3279, 3198
2523, 3189, 3270, 3279, 3198, 3190, 3271, 3280, 3199
2524, 3190, 3271, 3280, 3199, 3191, 3272, 3281, 3200
2525, 3191, 3272, 3281, 3200, 3192, 3273, 3282, 3201
2526, 3192, 3273, 3282, 3201, 3193, 3274, 3283, 3202
2527, 3193, 3274, 3283, 3202, 3194, 3275, 3284, 3203
2528, 3194, 3275, 3284, 3203, 3195, 3276, 3285, 3204
2529, 3196, 3277, 3286, 3205, 3197, 3278, 3287, 3206
2530, 3197, 3278, 3287, 3206, 3198, 3279, 3288, 3207
2531, 3198, 3279, 3288, 3207, 3199, 3280, 3289, 3208
2532, 3199, 3280, 3289, 3208, 3200, 3281, 3290, 3209
2533, 3200, 3281, 3290, 3209, 3201, 3282, 3291, 3210
2534, 3201, 3282, 3291, 3210, 3202, 3283, 3292, 3211
2535, 3202, 3283, 3292, 3211, 3203, 3284, 3293, 3212
2536, 3203, 3284, 3293, 3212, 3204, 3285, 3294, 3213
2537, 3205, 3286, 3295, 3214, 3206, 3287, 3296, 3215
2538, 3206, 3287, 3296, 3215, 3207, 3288, 3297, 3216
2539, 3207, 3288, 3297, 3216, 3208, 3289, 3298, 3217
2540, 3208, 3289, 3298, 3217, 3209, 3290, 3299, 3218
2541, 3209, 3290, 3299, 3218, 3210, 3291, 3300, 3219
2542, 3210, 3291, 3300, 3219, 3211, 3292, 3301, 3220
2543, 3211, 3292, 3301, 3220, 3212, 3293, 3302, 3221
2544, 3212, 3293, 3302, 3221, 3213, 3294, 3303, 3222
2545, 3214, 3295, 3304, 3223, 3215, 3296, 3305, 3224
2546, 3215, 3296, 3305, 3224, 3216, 3297, 3306, 3225
2547, 3216, 3297, 3306, 3225, 3217, 3298, 3307, 3226
2548, 3217, 3298, 3307, 3226, 3218, 3299, 3308, 3227
2549, 3218, 3299, 3308, 3227, 3219, 3300, 3309, 3228
2550, 3219, 3300, 3309, 3228, 3220, 3301, 3310, 3229
2551, 3220, 3301, 3310, 3229, 3221, 3302, 3311, 3230
2552, 3221, 3302, 3311, 3230, 3222, 3303, 3312, 3231
2553, 3223, 3304, 3313, 3232, 3224, 3305, 3314, 3233
2554, 3224, 3305, 3314, 3233, 3225, 3306, 3315, 3234
2555, 3225, 3306, 3315, 3234, 3226, 3307, 3316, 3235
2556, 3226, 3307, 3316, 3235, 3227, 3308, 3317, 3236
2557, 3227, 3308, 3317, 3236, 3228, 3309, 3318, 3237
2558, 3228, 3309, 3318, 3237, 3229, 3310, 3319, 3238
2559, 3229, 3310, 3319, 3238, 3230, 3311, 3320, 3239
2560, 3230, 3311, 3320, 3239, 3231, 3312, 3321, 3240
2561, 3241, 3322, 3331, 3250, 3242, 3323, 3332, 3251
2562, 3242, 3323, 3332, 3251, 3243, 3324, 3333, 3252
2563, 3243, 3324, 3333, 3252, 3244, 3325, 3334, 3253
2564, 3244, 3325, 3334, 3253, 3245, 3326, 3335, 3254
2565, 3245, 3326, 3335, 3254, 3246, 3327, 3336, 3255
2566, 3246, 3327, 3336, 3255, 3247, 3328, 3337, 3256
2567, 3247, 3328, 3337, 3256, 3248, 3329, 3338, 3257
2568, 3248, 3329, 3338, 3257, 3249, 3330, 3339, 3258
2569, 3250, 3331, 3340, 3259, 3251, 3332, 3341, 3260
2570, 3251, 3332, 3341, 3260, 3252, 3333, 3342, 3261
2571, 3252, 3333, 3342, 3261, 3253, 3334, 3343, 3262
2572, 3253, 3334, 3343, 3262, 3254, 3335, 3344, 3263
2573, 3254, 3335, 3344, 3263, 3255, 3336, 3345, 3264
2574, 3255, 3336, 3345, 3264, 3256, 3337, 3346, 3265
2575, 3256, 3337, 3346, 3265, 3257, 3338, 3347, 3266
2576, 3257, 3338, 3347, 3266, 3258, 3339, 3348, 3267
2577, 3259, 3340, 3349, 3268, 3260, 3341, 3350, 3269
2578, 3260, 3341, 3350, 3269, 3261, 3342, 3351, 3270
2579, 3261, 3342, 3351, 3270, 3262, 3343, 3352, 3271
2580, 3262, 3343, 3352, 3271, 3263, 3344, 3353, 3272
2581, 3263, 3344, 3353, 3272, 3264, 3345, 3354, 3273
2582, 3264, 3345, 3354, 3273, 3265, 3346, 3355, 3274
2583, 3265, 3346, 3355, 3274, 3266, 3347, 3356, 3275
2584, 3266, 3347, 3356, 3275, 3267, 3348, 3357, 3276
2585, 3268, 3349, 3358, 3277, 3269, 3350, 3359, 3278
2586, 3269, 3350, 3359, 3278, 3270, 3351, 3360, 3279
2587, 3270, 3351, 3360, 3279, 3271, 3352, 3361, 3280
2588, 3271, 3352, 3361, 3280, 3272, 3353, 3362, 3281
2589, 3272, 3353, 3362, 3281, 3273, 3354, 3363, 3282
2590, 3273, 3354, 3363, 3282, 3274, 3355, 3364, 3283
2591, 3274, 3355, 3364, 3283, 3275, 3356, 3365, 3284
2592, 3275, 3356, 3365, 3284, 3276, 3357, 3366, 3285
2593, 3277, 3358, 3367, 3286, 3278, 3359, 3368, 3287
2594, 3278, 3359, 3368, 3287, 3279, 3360, 3369, 3288
2595, 3279, 3360, 3369, 3288, 3280, 3361, 3370, 3289
2596, 3280, 3361, 3370, 3289, 3281, 3362, 3371, 3290
2597, 3281, 3362, 3371, 3290, 3282, 3363, 3372, 3291
2598, 3282, 3363, 3372, 3291, 3283, 3364, 3373, 3292
2599, 3283, 3364, 3373, 3292, 3284, 3365, 3374, 3293
2600, 3284, 3365, 3374, 3293, 3285, 3366, 3375, 3294
2601, 3286, 3367, 3376, 3295, 3287, 3368, 3377, 3296
2602, 3287, 3368, 3377, 3296, 3288, 3369, 3378, 3297
2603, 3288, 3369, 3378, 3297, 3289, 3370, 3379, 3298
2604, 3289, 3370, 3379, 3298, 3290, 3371, 3380, 3299
2605, 3290, 3371, 3380, 3299, 3291, 3372, 3381, 3300
2606, 3291, 3372, 3381, 3300, 3292, 3373, 3382, 3301
2607, 3292, 3373, 3382, 3301, 3293, 3374, 3383, 3302
2608, 3293, 3374, 3383, 3302, 3294, 3375, 3384, 3303
2609, 3295, 3376, 3385, 3304, 3296, 3377, 3386, 3305
2610, 3296, 3377, 3386, 3305, 3297, 3378, 3387, 3306
2611, 3297, 3378, 3387, 3306, 3298, 3379, 3388, 3307
2612, 3298, 3379, 3388, 3307, 3299, 3380, 3389, 3308
2613, 3299, 3380, 3389, 3308, 3300, 3381, 3390, 3309
2614, 3300, 3381, 3390, 3309, 3301, 3382, 3391, 3310
2615, 3301, 3382, 3391, 3310, 3302, 3383, 3392, 3311
2616, 3302, 3383, 3392, 3311, 3303, 3384, 3393, 3312
2617, 3304, 3385, 3394, 3313, 3305, 3386, 3395, 3314
2618, 3305, 3386, 3395, 3314, 3306, 3387, 3396, 3315
2619, 3306, 3387, 3396, 3315, 3307, 3388, 3397, 3316
2620, 3307, 3388, 3397, 3316, 3308, 3389, 3398, 3317
2621, 3308, 3389, 3398, 3317, 3309, 3390, 3399, 3318
2622, 3309, 3390, 3399, 3318, 3310, 3391, 3400, 3319
2623, 3310, 3391, 3400, 3319, 3311, 3392, 3401, 3320
2624, 3311, 3392, 3401, 3320, 3312, 3393, 3402, 3321
2625, 3322, 3403, 3412, 3331, 3323, 3404, 3413, 3332
2626, 3323, 3404, 3413, 3332, 3324, 3405, 3414, 3333
2627, 3324, 3405, 3414, 3333, 3325, 3406, 3415, 3334
2628, 3325, 3406, 3415, 3334, 3326, 3407, 3416, 3335
2629, 3326, 3407, 3416, 3335, 3327, 3408, 3417, 3336
2630, 3327, 3408, 3417, 3336, 3328, 3409, 3418, 3337
2631, 3328, 3409, 3418, 3337, 3329, 3410, 3419, 3338
2632, 3329, 3410, 3419, 3338, 3330, 3411, 3420, 3339
2633, 3331, 3412, 3421, 3340, 3332, 3413, 3422, 3341
2634, 3332, 3413, 3422, 3341, 3333, 3414, 3423, 3342
2635, 3333, 3414, 3423, 3342, 3334, 3415, 3424, 3343
2636, 3334, 3415, 3424, 3343, 3335, 3416, 3425, 3344
2637, 3335, 3416, 3425, 3344, 3336, 3417, 3426, 3345
2638, 3336, 3417, 3426, 3345, 3337, 3418, 3427, 3346
2639, 3337, 3418, 3427, 3346, 3338, 3419, 3428, 3347
2640, 3338, 3419, 3428, 3347, 3339, 3420, 3429, 3348
2641, 3340, 3421, 3430, 3349, 3341, 3422, 3431, 3350
2642, 3341, 3422, 3431, 3350, 3342, 3423, 3432, 3351
2643, 3342, 3423, 3432, 3351, 3343, 3424, 3433, 3352
2644, 3343, 3424, 3433, 3352, 3344, 3425, 3434, 3353
2645, 3344, 3425, 3434, 3353, 3345, 3426, 3435, 3354
2646, 3345, 3426, 3435, 3354, 3346, 3427, 3436, 3355
2647, 3346, 3427, 3436, 3355, 3347, 3428, 3437, 3356
2648, 3347, 3428, 3437, 3356, 3348, 3429, 3438, 3357
2649, 3349, 3430, 3439, 3358, 3350, 3431, 3440, 3359
2650, 3350, 3431, 3440, 3359, 3351, 3432, 3441, 3360
2651, 3351, 3432, 3441, 3360, 3352, 3433, 3442, 3361
2652, 3352, 3433, 3442, 3361, 3353, 3434, 3443, 3362
2653, 3353, 3434, 3443, 3362, 3354, 3435, 3444, 3363
2654, 3354, 3435, 3444, 3363, 3355, 3436, 3445, 3364
2655, 3355, 3436, 3445, 3364, 3356, 3437, 3446, 3365
2656, 3356, 3437, 3446, 3365, 3357, 3438, 3447, 3366
2657, 3358, 3439, 3448, 3367, 3359, 3440, 3449, 3368
2658, 3359, 3440, 3449, 3368, 3360, 3441, 3450, 3369
2659, 3360, 3441, 3450, 3369, 3361, 3442, 3451, 3370
2660, 3361, 3442, 3451, 3370, 3362, 3443, 3452, 3371
2661, 3362, 3443, 3452, 3371, 3363, 3444, 3453, 3372
2662, 3363, 3444, 3453, 3372, 3364, 3445, 3454, 3373
2663, 3364, 3445, 3454, 3373, 3365, 3446, 3455, 3374
2664, 3365, 3446, 3455, 3374, 3366, 3447, 3456, 3375
2665, 3367, 3448, 3457, 3376, 3368, 3449, 3458, 3377
2666, 3368, 3449, 3458, 3377, 3369, 3450, 3459, 3378
2667, 3369, 3450, 3459, 3378, 3370, 3451, 3460, 3379
2668, 3370, 3451, 3460, 3379, 3371, 3452, 3461, 3380
2669, 3371, 3452, 3461, 3380, 3372, 3453, 3462, 3381
2670, 3372, 3453, 3462, 3381, 3373, 3454, 3463, 3382
2671, 3373, 3454, 3463, 3382, 3374, 3455, 3464, 3383
2672, 3374, 3455, 3464, 3383, 3375, 3456, 3465, 3384
2673, 3376, 3457, 3466, 3385, 3377, 3458, 3467, 3386
2674, 3377, 3458, 3467, 3386, 3378, 3459, 3468, 3387
2675, 3378, 3459, 3468, 3387, 3379, 3460, 3469, 3388
2676, 3379, 3460, 3469, 3388, 3380, 3461, 3470, 3389
2677, 3380, 3461, 3470, 3389, 3381, 3462, 3471, 3390
2678, 3381, 3462, 3471, 3390, 3382, 3463, 3472, 3391
2679, 3382, 3463, 3472, 3391, 3383, 3464, 3473, 3392
2680, 3383, 3464, 3473, 3392, 3384, 3465, 3474, 3393
2681, 3385, 3466, 3475, 3394, 3386, 3467, 3476, 3395
2682, 3386, 3467, 3476, 3395, 3387, 3468, 3477, 3396
2683, 3387, 3468, 3477, 3396, 3388, 3469, 3478, 3397
2684, 3388, 3469, 3478, 3397, 3389, 3470, 3479, 3398
2685, 3389, 3470, 3479, 3398, 3390, 3471, 3480, 3399
2686, 3390, 3471, 3480, 3399, 3391, 3472, 3481, 3400
2687, 3391, 3472, 3481, 3400, 3392, 3473, 3482, 3401
2688, 3392, 3473, 3482, 3401, 3393, 3474, 3483, 3402
2689, 3403, 3484, 3493, 3412, 3404, 3485, 3494, 3413
2690, 3404, 3485, 3494, 3413, 3405, 3486, 3495, 3414
2691, 3405, 3486, 3495, 3414, 3406, 3487, 3496, 3415
2692, 3406, 3487, 3496, 3415, 3407, 3488, 3497, 3416
2693, 3407, 3488, 3497, 3416, 3408, 3489, 3498, 3417
2694, 3408, 3489, 3498, 3417, 3409, 3490, 3499, 3418
2695, 3409, 3490, 3499, 3418, 3410, 3491, 3500, 3419
2696, 3410, 3491, 3500, 3419, 3411, 3492, 3501, 3420
2697, 3412, 3493, 3502, 3421, 3413, 3494, 3503, 3422
2698, 3413, 3494, 3503, 3422, 3414, 3495, 3504, 3423
2699, 3414, 3495, 3504, 3423, 3415, 3496, 3505, 3424
2700, 3415, 3496, 3505, 3424, 3416, 3497, 3506, 3425
2701, 3416, 3497, 3506, 3425, 3417, 3498, 3507, 3426
2702, 3417, 3498, 3507, 3426, 3418, 3499, 3508, 3427
2703, 3418, 3499, 3508, 3427, 3419, 3500, 3509, 3428
2704, 3419, 3500, 3509, 3428, 3420, 3501, 3510, 3429
2705, 3421, 3502, 3511, 3430, 3422, 3503, 3512, 3431
2706, 3422, 3503, 3512, 3431, 3423, 3504, 3513, 3432
2707, 3423, 3504, 3513, 3432, 3424, 3505, 3514, 3433
2708, 3424, 3505, 3514, 3433, 3425, 3506, 3515, 3434
2709, 3425, 3506, 3515, 3434, 3426, 3507, 3516, 3435
2710, 3426, 3507, 3516, 3435, 3427, 3508, 3517, 3436
2711, 3427, 3508, 3517, 3436, 3428, 3509, 3518, 3437
2712, 3428, 3509, 3518, 3437, 3429, 3510, 3519, 3438
2713, 3430, 3511, 3520, 3439, 3431, 3512, 3521, 3440
2714, 3431, 3512, 3521, 3440, 3432, 3513, 3522, 3441
2715, 3432, 3513, 3522, 3441, 3433, 3514, 3523, 3442
2716, 3433, 3514, 3523, 3442, 3434, 3515, 3524, 3443
2717, 3434, 3515, 3524, 3443, 3435, 3516, 3525, 3444
2718, 3435, 3516, 3525, 3444, 3436, 3517, 3526, 3445
2719, 3436, 3517, 3526, 3445, 3437, 3518, 3527, 3446
2720, 3437, 3518, 3527, 3446, 3438, 3519, 3528, 3447
2721, 3439, 3520, 3529, 3448, 3440, 3521, 3530, 3449
2722, 3440, 3521, 3530, 3449, 3441, 3522, 3531, 3450
2723, 3441, 3522, 3531, 3450, 3442, 3523, 3532, 3451
2724, 3442, 3523, 3532, 3451, 3443, 3524, 3533, 3452
2725, 3443, 3524, 3533, 3452, 3444, 3525, 3534, 3453
2726, 3444, 3525, 3534, 3453, 3445, 3526, 3535, 3454
2727, 3445, 3526, 3535, 3454, 3446, 3527, 3536, 3455
2728, 3446, 3527, 3536, 3455, 3447, 3528, 3537, 3456
2729, 3448, 3529, 3538, 3457, 3449, 3530, 3539, 3458
2730, 3449, 3530, 3539, 3458, 3450, 3531, 3540, 3459
2731, 3450, 3531, 3540, 3459, 3451, 3532, 3541, 3460
2732, 3451, 3532, 3541, 3460, 3452, 3533, 3542, 3461
2733, 3452, 3533, 3542, 3461, 3453, 3534, 3543, 3462
2734, 3453, 3534, 3543, 3462, 3454, 3535, 3544, 3463
2735, 3454, 3535, 3544, 3463, 3455, 3536, 3545, 3464
2736, 3455, 3536, 3545, 3464, 3456, 3537, 3546, 3465
2737, 3457, 3538, 3547, 3466, 3458, 3539, 3548, 3467
2738, 3458, 3539, 3548, 3467, 3459, 3540, 3549, 3468
2739, 3459, 3540, 3549, 3468, 3460, 3541, 3550, 3469
2740, 3460, 3541, 3550, 3469, 3461, 3542, 3551, 3470
2741, 3461, 3542, 3551, 3470, 3462, 3543, 3552, 3471
2742, 3462, 3543, 3552, 3471, 3463, 3544, 3553, 3472
2743, 3463, 3544, 3553, 3472, 3464, 3545, 3554, 3473
2744, 3464, 3545, 3554, 3473, 3465, 3546, 3555, 3474
2745, 3466, 3547, 3556, 3475, 3467, 3548, 3557, 3476
2746, 3467, 3548, 3557, 3476, 3468, 3549, 3558, 3477
2747, 3468, 3549, 3558, 3477, 3469, 3550, 3559, 3478
2748, 3469, 3550, 3559, 3478, 3470, 3551, 3560, 3479
2749, 3470, 3551, 3560, 3479, 3471, 3552, 3561, 3480
2750, 3471, 3552, 3561, 3480, 3472, 3553, 3562, 3481
2751, 3472, 3553, 3562, 3481, 3473, 3554, 3563, 3482
2752, 3473, 3554, 3563, 3482, 3474, 3555, 3564, 3483
2753, 3484, 3565, 3574, 3493, 3485, 3566, 3575, 3494
2754, 3485, 3566, 3575, 3494, 3486, 3567, 3576, 3495
2755, 3486, 3567, 3576, 3495, 3487, 3568, 3577, 3496
2756, 3487, 3568, 3577, 3496, 3488, 3569, 3578, 3497
2757, 3488, 3569, 3578, 3497, 3489, 3570, 3579, 3498
2758, 3489, 3570, 3579, 3498, 3490, 3571, 3580, 3499
2759, 3490, 3571, 3580, 3499, 3491, 3572, 3581, 3500
2760, 3491, 3572, 3581, 3500, 3492, 3573, 3582, 3501
2761, 3493, 3574, 3583, 3502, 3494, 3575, 3584, 3503
2762, 3494, 3575, 3584, 3503, 3495, 3576, 3585, 3504
2763, 3495, 3576, 3585, 3504, 3496, 3577, 3586, 3505
2764, 3496, 3577, 3586, 3505, 3497, 3578, 3587, 3506
2765, 3497, 3578, 3587, 3506, 3498, 3579, 3588, 3507
2766, 3498, 3579, 3588, 3507, 3499, 3580, 3589, 3508
2767, 3499, 3580, 3589, 3508, 3500, 3581, 3590, 3509
2768, 3500, 3581, 3590, 3509, 3501, 3582, 3591, 3510
2769, 3502, 3583, 3592, 3511, 3503, 3584, 3593, 3512
2770, 3503, 3584, 3593, 3512, 3504, 3585, 3594, 3513
2771, 3504, 3585, 3594, 3513, 3505, 3586, 3595, 3514
2772, 3505, 3586, 3595, 3514, 3506, 3587, 3596, 3515
2773, 3506, 3587, 3596, 3515, 3507, 3588, 3597, 3516
2774, 3507, 3588, 3597, 3516, 3508, 3589, 3598, 3517
2775, 3508, 3589, 3598, 3517, 3509, 3590, 3599, 3518
2776, 3509, 3590, 3599, 3518, 3510, 3591, 3600, 3519
2777, 3511, 3592, 3601, 3520, 3512, 3593, 3602, 3521
2778, 3512, 3593, 3602, 3521, 3513, 3594, 3603, 3522
2779, 3513, 3594, 3603, 3522, 3514, 3595, 3604, 3523
2780, 3514, 3595, 3604, 3523, 3515, 3596, 3605, 3524
2781, 3515, 3596, 3605, 3524, 3516, 3597, 3606, 3525
2782, 3516, 3597, 3606, 3525, 3517, 3598, 3607, 3526
2783, 3517, 3598, 3607, 3526, 3518, 3599, 3608, 3527
2784, 3518, 3599, 3608, 3527, 3519, 3600, 3609, 3528
2785, 3520, 3601, 3610, 3529, 3521, 3602, 3611, 3530
2786, 3521, 3602, 3611, 3530, 3522, 3603, 3612, 3531
2787, 3522, 3603, 3612, 3531, 3523, 3604, 3613, 3532
2788, 3523, 3604, 3613, 3532, 3524, 3605, 3614, 3533
2789, 3524, 3605, 3614, 3533, 3525, 3606, 3615, 3534
2790, 3525, 3606, 3615, 3534, 3526, 3607, 3616, 3535
2791, 3526, 3607, 3616, 3535, 3527, 3608, 3617, 3536
2792, 3527, 3608, 3617, 3536, 3528, 3609, 3618, 3537
2793, 3529, 3610, 3619, 3538, 3530, 3611, 3620, 3539
2794, 3530, 3611, 3620, 3539, 3531, 3612, 3621, 3540
2795, 3531, 3612, 3621, 3540, 3532, 3613, 3622, 3541
2796, 3532, 3613, 3622, 3541, 3533, 3614, 3623, 3542
2797, 3533, 3614, 3623, 3542, 3534, 3615, 3624, 3543
2798, 3534, 3615, 3624, 3543, 3535, 3616, 3625, 3544
2799, 3535, 3616, 3625, 3544, 3536, 3617, 3626, 3545
2800, 3536, 3617, 3626, 3545, 3537, 3618, 3627, 3546
2801, 3538, 3619, 3628, 3547, 3539, 3620, 3629, 3548
2802, 3539, 3620, 3629, 3548, 3540, 3621, 3630, 3549
2803, 3540, 3621, 3630, 3549, 3541, 3622, 3631, 3550
2804, 3541, 3622, 3631, 3550, 3542, 3623, 3632, 3551
2805, 3542, 3623, 3632, 3551, 3543, 3624, 3633, 3552
2806, 3543, 3624, 3633, 3552, 3544, 3625, 3634, 3553
2807, 3544, 3625, 3634, 3553, 3545, 3626, 3635, 3554
2808, 3545, 3626, 3635, 3554, 3546, 3627, 3636, 3555
2809, 3547, 3628, 3637, 3556, 3548, 3629, 3638, 3557
2810, 3548, 3629, 3638, 3557, 3549, 3630, 3639, 3558
2811, 3549, 3630, 3639, 3558, 3550, 3631, 3640, 3559
2812, 3550, 3631, 3640, 3559, 3551, 3632, 3641, 3560
2813, 3551, 3632, 3641, 3560, 3552, 3633, 3642, 3561
2814, 3552, 3633, 3642, 3561, 3553, 3634, 3643, 3562
2815, 3553, 3634, 3643, 3562, 3554, 3635, 3644, 3563
2816, 3554, 3635, 3644, 3563, 3555, 3636, 3645, 3564
2817, 3565, 3646, 3655, 3574, 3566, 3647, 3656, 3575
2818, 3566, 3647, 3656, 3575, 3567, 3648, 3657, 3576
2819, 3567, 3648, 3657, 3576, 3568, 3649, 3658, 3577
2820, 3568, 3649, 3658, 3577, 3569, 3650, 3659, 3578
2821, 3569, 3650, 3659, 3578, 3570, 3651, 3660, 3579
2822, 3570, 3651, 3660, 3579, 3571, 3652, 3661, 3580
2823, 3571, 3652, 3661, 3580, 3572, 3653, 3662, 3581
2824, 3572, 3653, 3662, 3581, 3573, 3654, 3663, 3582
2825, 3574, 3655, 3664, 3583, 3575, 3656, 3665, 3584
2826, 3575, 3656, 3665, 3584, 3576, 3657, 3666, 3585
2827, 3576, 3657, 3666, 3585, 3577, 3658, 3667, 3586
2828, 3577, 3658, 3667, 3586, 3578, 3659, 3668, 3587
2829, 3578, 3659, 3668, 3587, 3579, 3660, 3669, 3588
2830, 3579, 3660, 3669, 3588, 3580, 3661, 3670, 3589
2831, 3580, 3661, 3670, 3589, 3581, 3662, 3671, 3590
2832, 3581, 3662, 3671, 3590, 3582, 3663, 3672, 3591
2833, 3583, 3664, 3673, 3592, 3584, 3665, 3674, 3593
2834, 3584, 3665, 3674, 3593, 3585, 3666, 3675, 3594
2835, 3585, 3666, 3675, 3594, 3586, 3667, 3676, 3595
2836, 3586, 3667, 3676, 3595, 3587, 3668, 3677, 3596
2837, 3587, 3668, 3677, 3596, 3588, 3669, 3678, 3597
2838, 3588, 3669, 3678, 3597, 3589, 3670, 3679, 3598
2839, 3589, 3670, 3679, 3598, 3590, 3671, 3680, 3599
2840, 3590, 3671, 3680, 3599, 3591, 3672, 3681, 3600
2841, 3592, 3673, 3682, 3601, 3593, 3674, 3683, 3602
2842, 3593, 3674, 3683, 3602, 3594, 3675, 3684, 3603
2843, 3594, 3675, 3684, 3603, 3595, 3676, 3685, 3604
2844, 3595, 3676, 3685, 3604, 3596, 3677, 3686, 3605
2845, 3596, 3677, 3686, 3605, 3597, 3678, 3687, 3606
2846, 3597, 3678, 3687, 3606, 3598, 3679, 3688, 3607
2847, 3598, 3679, 3688, 3607, 3599, 3680, 3689, 3608
2848, 3599, 3680, 3689, 3608, 3600, 3681, 3690, 3609
2849, 3601, 3682, 3691, 3610, 3602, 3683, 3692, 3611
2850, 3602, 3683, 3692, 3611, 3603, 3684, 3693, 3612
2851, 3603, 3684, 3693, 3612, 3604, 3685, 3694, 3613
2852, 3604, 3685, 3694, 3613, 3605, 3686, 3695, 3614
2853, 3605, 3686, 3695, 3614, 3606, 3687, 3696, 3615
2854, 3606, 3687, 3696, 3615, 3607, 3688, 3697, 3616
2855, 3607, 3688, 3697, 3616, 3608, 3689, 3698, 3617
2856, 3608, 3689, 3698, 3617, 3609, 3690, 3699, 3618
2857, 3610, 3691, 3700, 3619, 3611, 3692, 3701, 3620
2858, 3611, 3692, 3701, 3620, 3612, 3693, 3702, 3621
2859, 3612, 3693, 3702, 3621, 3613, 3694, 3703, 3622
2860, 3613, 3694, 3703, 3622, 3614, 3695, 3704, 3623
2861, 3614, 3695, 3704, 3623, 3615, 3696, 3705, 3624
2862, 3615, 3696, 3705, 3624, 3616, 3697, 3706, 3625
2863, 3616, 3697, 3706, 3625, 3617, 3698, 3707, 3626
2864, 3617, 3698, 3707, 3626, 3618, 3699, 3708, 3627
2865, 3619, 3700, 3709, 3628, 3620, 3701, 3710, 3629
2866, 3620, 3701, 3710, 3629, 3621, 3702, 3711, 3630
2867, 3621, 3702, 3711, 3630, 3622, 3703, 3712, 3631
2868, 3622, 3703, 3712, 3631, 3623, 3704, 3713, 3632
2869, 3623, 3704, 3713, 3632, 3624, 3705, 3714, 3633
2870, 3624, 3705, 3714, 3633, 3625, 3706, 3715, 3634
2871, 3625, 3706, 3715, 3634, 3626, 3707, 3716, 3635
2872, 3626, 3707, 3716, 3635, 3627, 3708, 3717, 3636
2873, 3628, 3709, 3718, 3637, 3629, 3710, 3719, 3638
2874, 3629, 3710, 3719, 3638, 3630, 3711, 3720, 3639
2875, 3630, 3711, 3720, 3639, 3631, 3712, 3721, 3640
2876, 3631, 3712, 3721, 3640, 3632, 3713, 3722, 3641
2877, 3632, 3713, 3722, 3641, 3633, 3714, 3723, 3642
2878, 3633, 3714, 3723, 3642, 3634, 3715, 3724, 3643
2879, 3634, 3715, 3724, 3643, 3635, 3716, 3725, 3644
2880, 3635, 3716, 3725, 3644, 3636, 3717, 3726, 3645
2881, 3646, 3727, 3736, 3655, 3647, 3728, 3737, 3656
2882, 3647, 3728, 3737, 3656, 3648, 3729, 3738, 3657
2883, 3648, 3729, 3738, 3657, 3649, 3730, 3739, 3658
2884, 3649, 3730, 3739, 3658, 3650, 3731, 3740, 3659
2885, 3650, 3731, 3740, 3659, 3651, 3732, 3741, 3660
2886, 3651, 3732, 3741, 3660, 3652, 3733, 3742, 3661
2887, 3652, 3733, 3742, 3661, 3653, 3734, 3743, 3662
2888, 3653, 3734, 3743, 3662, 3654, 3735, 3744, 3663
2889, 3655, 3736, 3745, 3664, 3656, 3737, 3746, 3665
2890, 3656, 3737, 3746, 3665, 3657, 3738, 3747, 3666
2891, 3657, 3738, 3747, 3666, 3658, 3739, 3748, 3667
2892, 3658, 3739, 3748, 3667, 3659, 3740, 3749, 3668
2893, 3659, 3740, 3749, 3668, 3660, 3741, 3750, 3669
2894, 3660, 3741, 3750, 3669, 3661, 3742, 3751, 3670
2895, 3661, 3742, 3751, 3670, 3662, 3743, 3752, 3671
2896, 3662, 3743, 3752, 3671, 3663, 3744, 3753, 3672
2897, 3664, 3745, 3754, 3673, 3665, 3746, 3755, 3674
2898, 3665, 3746, 3755, 3674, 3666, 3747, 3756, 3675
2899, 3666, 3747, 3756, 3675, 3667, 3748, 3757, 3676
2900, 3667, 3748, 3757, 3676, 3668, 3749, 3758, 3677
2901, 3668, 3749, 3758, 3677, 3669, 3750, 3759, 3678
2902, 3669, 3750, 3759, 3678, 3670, 3751, 3760, 3679
2903, 3670, 3751, 3760, 3679, 3671, 3752, 3761, 3680
2904, 3671, 3752, 3761, 3680, 3672, 3753, 3762, 3681
2905, 3673, 3754, 3763, 3682, 3674, 3755, 3764, 3683
2906, 3674, 3755, 3764, 3683, 3675, 3756, 3765, 3684
2907, 3675, 3756, 3765, 3684, 3676, 3757, 3766, 3685
2908, 3676, 3757, 3766, 3685, 3677, 3758, 3767, 3686
2909, 3677, 3758, 3767, 3686, 3678, 3759, 3768, 3687
2910, 3678, 3759, 3768, 3687, 3679, 3760, 3769, 3688
2911, 3679, 3760, 3769, 3688, 3680, 3761, 3770, 3689
2912, 3680, 3761, 3770, 3689, 3681, 3762, 3771, 3690
2913, 3682, 3763, 3772, 3691, 3683, 3764, 3773, 3692
2914, 3683, 3764, 3773, 3692, 3684, 3765, 3774, 3693
2915, 3684, 3765, 3774, 3693, 3685, 3766, 3775, 3694
2916, 3685, 3766, 3775, 3694, 3686, 3767, 3776, 3695
2917, 3686, 3767, 3776, 3695, 3687, 3768, 3777, 3696
2918, 3687, 3768, 3777, 3696, 3688, 3769, 3778, 3697
2919, 3688, 3769, 3778, 3697, 3689, 3770, 3779, 3698
2920, 3689, 3770, 3779, 3698, 3690, 3771, 3780, 3699
2921, 3691, 3772, 3781, 3700, 3692, 3773, 3782, 3701
2922, 3692, 3773, 3782, 3701, 3693, 3774, 3783, 3702
2923, 3693, 3774, 3783, 3702, 3694, 3775, 3784, 3703
2924, 3694, 3775, 3784, 3703, 3695, 3776, 3785, 3704
2925, 3695, 3776, 3785, 3704, 3696, 3777, 3786, 3705
2926, 3696, 3777, 3786, 3705, 3697, 3778, 3787, 3706
2927, 3697, 3778, 3787, 3706, 3698, 3779, 3788, 3707
2928, 3698, 3779, 3788, 3707, 3699, 3780, 3789, 3708
2929, 3700, 3781, 3790, 3709, 3701, 3782, 3791, 3710
2930, 3701, 3782, 3791, 3710, 3702, 3783, 3792, 3711
2931, 3702, 3783, 3792, 3711, 3703, 3784, 3793, 3712
2932, 3703, 3784, 3793, 3712, 3704, 3785, 3794, 3713
2933, 3704, 3785, 3794, 3713, 3705, 3786, 3795, 3714
2934, 3705, 3786, 3795, 3714, 3706, 3787, 3796, 3715
2935, 3706, 3787, 3796, 3715, 3707, 3788, 3797, 3716
2936, 3707, 3788, 3797, 3716, 3708, 3789, 3798, 3717
2937, 3709, 3790, 3799, 3718, 3710, 3791, 3800, 3719
2938, 3710, 3791, 3800, 3719, 3711, 3792, 3801, 3720
2939, 3711, 3792, 3801, 3720, 3712, 3793, 3802, 3721
2940, 3712, 3793, 3802, 3721, 3713, 3794, 3803, 3722
2941, 3713, 3794, 3803, 3722, 3714, 3795, 3804, 3723
2942, 3714, 3795, 3804, 3723, 3715, 3796, 3805, 3724
2943, 3715, 3796, 3805, 3724, 3716, 3797, 3806, 3725
2944, 3716, 3797, 3806, 3725, 3717, 3798, 3807, 3726
2945, 3727, 3808, 3817, 3736, 3728, 3809, 3818, 3737
2946, 3728, 3809, 3818, 3737, 3729, 3810, 3819, 3738
2947, 3729, 3810, 3819, 3738, 3730, 3811, 3820, 3739
2948, 3730, 3811, 3820, 3739, 3731, 3812, 3821, 3740
2949, 3731, 3812, 3821, 3740, 3732, 3813, 3822, 3741
2950, 3732, 3813, 3822, 3741, 3733, 3814, 3823, 3742
2951, 3733, 3814, 3823, 3742, 3734, 3815, 3824, 3743
2952, 3734, 3815, 3824, 3743, 3735, 3816, 3825, 3744
2953, 3736, 3817, 3826, 3745, 3737, 3818, 3827, 3746
2954, 3737, 3818, 3827, 3746, 3738, 3819, 3828, 3747
2955, 3738, 3819, 3828, 3747, 3739, 3820, 3829, 3748
2956, 3739, 3820, 3829, 3748, 3740, 3821, 3830, 3749
2957, 3740, 3821, 3830, 3749, 3741, 3822, 3831, 3750
2958, 3741, 3822, 3831, 3750, 3742, 3823, 3832, 3751
2959, 3742, 3823, 3832, 3751, 3743, 3824, 3833, 3752
2960, 3743, 3824, 3833, 3752, 3744, 3825, 3834, 3753
2961, 3745, 3826, 3835, 3754, 3746, 3827, 3836, 3755
2962, 3746, 3827, 3836, 3755, 3747, 3828, 3837, 3756
2963, 3747, 3828, 3837, 3756, 3748, 3829, 3838, 3757
2964, 3748, 3829, 3838, 3757, 3749, 3830, 3839, 3758
2965, 3749, 3830, 3839, 3758, 3750, 3831, 3840, 3759
2966, 3750, 3831, 3840, 3759, 3751, 3832, 3841, 3760
2967, 3751, 3832, 3841, 3760, 3752, 3833, 3842, 3761
2968, 3752, 3833, 3842, 3761, 3753, 3834, 3843, 3762
2969, 3754, 3835, 3844, 3763, 3755, 3836, 3845, 3764
2970, 3755, 3836, 3845, 3764, 3756, 3837, 3846, 3765
2971, 3756, 3837, 3846, 3765, 3757, 3838, 3847, 3766
2972, 3757, 3838, 3847, 3766, 3758, 3839, 3848, 3767
2973, 3758, 3839, 3848, 3767, 3759, 3840, 3849, 3768
2974, 3759, 3840, 3849, 3768, 3760, 3841, 3850, 3769
2975, 3760, 3841, 3850, 3769, 3761, 3842, 3851, 3770
2976, 3761, 3842, 3851, 3770, 3762, 3843, 3852, 3771
2977, 3763, 3844, 3853, 3772, 3764, 3845, 3854, 3773
2978, 3764, 3845, 3854, 3773, 3765, 3846, 3855, 3774
2979, 3765, 3846, 3855, 3774, 3766, 3847, 3856, 3775
2980, 3766, 3847, 3856, 3775, 3767, 3848, 3857, 3776
2981, 3767, 3848, 3857, 3776, 3768, 3849, 3858, 3777
2982, 3768, 3849, 3858, 3777, 3769, 3850, 3859, 3778
2983, 3769, 3850, 3859, 3778, 3770, 3851, 3860, 3779
2984, 3770, 3851, 3860, 3779, 3771, 3852, 3861, 3780
2985, 3772, 3853, 3862, 3781, 3773, 3854, 3863, 3782
2986, 3773, 3854, 3863, 3782, 3774, 3855, 3864, 3783
2987, 3774, 3855, 3864, 3783, 3775, 3856, 3865, 3784
2988, 3775, 3856, 3865, 3784, 3776, 3857, 3866, 3785
2989, 3776, 3857, 3866, 3785, 3777, 3858, 3867, 3786
2990, 3777, 3858, 3867, 3786, 3778, 3859, 3868, 3787
2991, 3778, 3859, 3868, 3787, 3779, 3860, 3869, 3788
2992, 3779, 3860, 3869, 3788, 3780, 3861, 3870, 3789
2993, 3781, 3862, 3871, 3790, 3782, 3863, 3872, 3791
2994, 3782, 3863, 3872, 3791, 3783, 3864, 3873, 3792
2995, 3783, 3864, 3873, 3792, 3784, 3865, 3874, 3793
2996, 3784, 3865, 3874, 3793, 3785, 3866, 3875, 3794
2997, 3785, 3866, 3875, 3794, 3786, 3867, 3876, 3795
2998, 3786, 3867, 3876, 3795, 3787, 3868, 3877, 3796
2999, 3787, 3868, 3877, 3796, 3788, 3869, 3878, 3797
3000, 3788, 3869, 3878, 3797, 3789, 3870, 3879, 3798
3001, 3790, 3871, 3880, 3799, 3791, 3872, 3881, 3800
3002, 3791, 3872, 3881, 3800, 3792, 3873, 3882, 3801
3003, 3792, 3873, 3882, 3801, 3793, 3874, 3883, 3802
3004, 3793, 3874, 3883, 3802, 3794, 3875, 3884, 3803
3005, 3794, 3875, 3884, 3803, 3795, 3876, 3885, 3804
3006, 3795, 3876, 3885, 3804, 3796, 3877, 3886, 3805
3007, 3796, 3877, 3886, 3805, 3797, 3878, 3887, 3806
3008, 3797, 3878, 3887, 3806, 3798, 3879, 3888, 3807
3009, 3808, 3889, 3898, 3817, 3809, 3890, 3899, 3818
3010, 3809, 3890, 3899, 3818, 3810, 3891, 3900, 3819
3011, 3810, 3891, 3900, 3819, 3811, 3892, 3901, 3820
3012, 3811, 3892, 3901, 3820, 3812, 3893, 3902, 3821
3013, 3812, 3893, 3902, 3821, 3813, 3894, 3903, 3822
3014, 3813, 3894, 3903, 3822, 3814, 3895, 3904, 3823
3015, 3814, 3895, 3904, 3823, 3815, 3896, 3905, 3824
3016, 3815, 3896, 3905, 3824, 3816, 3897, 3906, 3825
3017, 3817, 3898, 3907, 3826, 3818, 3899, 3908, 3827
3018, 3818, 3899, 3908, 3827, 3819, 3900, 3909, 3828
3019, 3819, 3900, 3909, 3828, 3820, 3901, 3910, 3829
3020, 3820, 3901, 3910, 3829, 3821, 3902, 3911, 3830
3021, 3821, 3902, 3911, 3830, 3822, 3903, 3912, 3831
3022, 3822, 3903, 3912, 3831, 3823, 3904, 3913, 3832
3023, 3823, 3904, 3913, 3832, 3824, 3905, 3914, 3833
3024, 3824, 3905, 3914, 3833, 3825, 3906, 3915, 3834
3025, 3826, 3907, 3916, 3835, 3827, 3908, 3917, 3836
3026, 3827, 3908, 3917, 3836, 3828, 3909, 3918, 3837
3027, 3828, 3909, 3918, 3837, 3829, 3910, 3919, 3838
3028, 3829, 3910, 3919, 3838, 3830, 3911, 3920, 3839
3029, 3830, 3911, 3920, 3839, 3831, 3912, 3921, 3840
3030, 3831, 3912, 3921, 3840, 3832, 3913, 3922, 3841
3031, 3832, 3913, 3922, 3841, 3833, 3914, 3923, 3842
3032, 3833, 3914, 3923, 3842, 3834, 3915, 3924, 3843
3033, 3835, 3916, 3925, 3844, 3836, 3917, 3926, 3845
3034, 3836, 3917, 3926, 3845, 3837, 3918, 3927, 3846
3035, 3837, 3918, 3927, 3846, 3838, 3919, 3928, 3847
3036, 3838, 3919, 3928, 3847, 3839, 3920, 3929, 3848
3037, 3839, 3920, 3929, 3848, 3840, 3921, 3930, 3849
3038, 3840, 3921, 3930, 3849, 3841, 3922, 3931, 3850
3039, 3841, 3922, 3931, 3850, 3842, 3923, 3932, 3851
3040, 3842, 3923, 3932, 3851, 3843, 3924, 3933, 3852
3041, 3844, 3925, 3934, 3853, 3845, 3926, 3935, 3854
3042, 3845, 3926, 3935, 3854, 3846, 3927, 3936, 3855
3043, 3846, 3927, 3936, 3855, 3847, 3928, 3937, 3856
3044, 3847, 3928, 3937, 3856, 3848, 3929, 3938, 3857
3045, 3848, 3929, 3938, 3857, 3849, 3930, 3939, 3858
3046, 3849, 3930, 3939, 3858, 3850, 3931, 3940, 3859
3047, 3850, 3931, 3940, 3859, 3851, 3932, 3941, 3860
3048, 3851, 3932, 3941, 3860, 3852, 3933, 3942, 3861
3049, 3853, 3934, 3943, 3862, 3854, 3935, 3944, 3863
3050, 3854, 3935, 3944, 3863, 3855, 3936, 3945, 3864
3051, 3855, 3936, 3945, 3864, 3856, 3937, 3946, 3865
3052, 3856, 3937, 3946, 3865, 3857, 3938, 3947, 3866
3053, 3857, 3938, 3947, 3866, 3858, 3939, 3948, 3867
3054, 3858, 3939, 3948, 3867, 3859, 3940, 3949, 3868
3055, 3859, 3940, 3949, 3868, 3860, 3941, 3950, 3869
3056, 3860, 3941, 3950, 3869, 3861, 3942, 3951, 3870
3057, 3862, 3943, 3952, 3871, 3863, 3944, 3953, 3872
3058, 3863, 3944, 3953, 3872, 3864, 3945, 3954, 3873
3059, 3864, 3945, 3954, 3873, 3865, 3946, 3955, 3874
3060, 3865, 3946, 3955, 3874, 3866, 3947, 3956, 3875
3061, 3866, 3947, 3956, 3875, 3867, 3948, 3957, 3876
3062, 3867, 3948, 3957, 3876, 3868, 3949, 3958, 3877
3063, 3868, 3949, 3958, 3877, 3869, 3950, 3959, 3878
3064, 3869, 3950, 3959, 3878, 3870, 3951, 3960, 3879
3065, 3871, 3952, 3961, 3880, 3872, 3953, 3962, 3881
3066, 3872, 3953, 3962, 3881, 3873, 3954, 3963, 3882
3067, 3873, 3954, 3963, 3882, 3874, 3955, 3964, 3883
3068, 3874, 3955, 3964, 3883, 3875, 3956, 3965, 3884
3069, 3875, 3956, 3965, 3884, 3876, 3957, 3966, 3885
3070, 3876, 3957, 3966, 3885, 3877, 3958, 3967, 3886
3071, 3877, 3958, 3967, 3886, 3878, 3959, 3968, 3887
3072, 3878, 3959, 3968, 3887, 3879, 3960, 3969, 3888
3073, 3889, 3970, 3979, 3898, 3890, 3971, 3980, 3899
3074, 3890, 3971, 3980, 3899, 3891, 3972, 3981, 3900
3075, 3891, 3972, 3981, 3900, 3892, 3973, 3982, 3901
3076, 3892, 3973, 3982, 3901, 3893, 3974, 3983, 3902
3077, 3893, 3974, 3983, 3902, 3894, 3975, 3984, 3903
3078, 3894, 3975, 3984, 3903, 3895, 3976, 3985, 3904
3079, 3895, 3976, 3985, 3904, 3896, 3977, 3986, 3905
3080, 3896, 3977, 3986, 3905, 3897, 3978, 3987, 3906
3081, 3898, 3979, 3988, 3907, 3899, 3980, 3989, 3908
3082, 3899, 3980, 3989, 3908, 3900, 3981, 3990, 3909
3083, 3900, 3981, 3990, 3909, 3901, 3982, 3991, 3910
3084, 3901, 3982, 3991, 3910, 3902, 3983, 3992, 3911
3085, 3902, 3983, 3992, 3911, 3903, 3984, 3993, 3912
3086, 3903, 3984, 3993, 3912, 3904, 3985, 3994, 3913
3087, 3904, 3985, 3994, 3913, 3905, 3986, 3995, 3914
3088, 3905, 3986, 3995, 3914, 3906, 3987, 3996, 3915
3089, 3907, 3988, 3997, 3916, 3908, 3989, 3998, 3917
3090, 3908, 3989, 3998, 3917, 3909, 3990, 3999, 3918
3091, 3909, 3990, 3999, 3918, 3910, 3991, 4000, 3919
3092, 3910, 3991, 4000, 3919, 3911, 3992, 4001, 3920
3093, 3911, 3992, 4001, 3920, 3912, 3993, 4002, 3921
3094, 3912, 3993, 4002, 3921, 3913, 3994, 4003, 3922
3095, 3913, 3994, 4003, 3922, 3914, 3995, 4004, 3923
3096, 3914, 3995, 4004, 3923, 3915, 3996, 4005, 3924
3097, 3916, 3997, 4006, 3925, 3917, 3998, 4007, 3926
3098, 3917, 3998, 4007, 3926, 3918, 3999, 4008, 3927
3099, 3918, 3999, 4008, 3927, 3919, 4000, 4009, 3928
3100, 3919, 4000, 4009, 3928, 3920, 4001, 4010, 3929
3101, 3920, 4001, 4010, 3929, 3921, 4002, 4011, 3930
3102, 3921, 4002, 4011, 3930, 3922, 4003, 4012, 3931
3103, 3922, 4003, 4012, 3931, 3923, 4004, 4013, 3932
3104, 3923, 4004, 4013, 3932, 3924, 4005, 4014, 3933
3105, 3925, 4006, 4015, 3934, 3926, 4007, 4016, 3935
3106, 3926, 4007, 4016, 3935, 3927, 4008, 4017, 3936
3107, 3927, 4008, 4017, 3936, 3928, 4009, 4018, 3937
3108, 3928, 4009, 4018, 3937, 3929, 4010, 4019, 3938
3109, 3929, 4010, 4019, 3938, 3930, 4011, 4020, 3939
3110, 3930, 4011, 4020, 3939, 3931, 4012, 4021, 3940
3111, 3931, 4012, 4021, 3940, 3932, 4013, 4022, 3941
3112, 3932, 4013, 4022, 3941, 3933, 4014, 4023, 3942
3113, 3934, 4015, 4024, 3943, 3935, 4016, 4025, 3944
3114, 3935, 4016, 4025, 3944, 3936, 4017, 4026, 3945
3115, 3936, 4017, 4026, 3945, 3937, 4018, 4027, 3946
3116, 3937, 4018, 4027, 3946, 3938, 4019, 4028, 3947
3117, 3938, 4019, 4028, 3947, 3939, 4020, 4029, 3948
3118, 3939, 4020, 4029, 3948, 3940, 4021, 4030, 3949
3119, 3940, 4021, 4030, 3949, 3941, 4022, 4031, 3950
3120, 3941, 4022, 4031, 3950, 3942, 4023, 4032, 3951
3121, 3943, 4024, 4033, 3952, 3944, 4025, 4034, 3953
3122, 3944, 4025, 4034, 3953, 3945, 4026, 4035, 3954
3123, 3945, 4026, 4035, 3954, 3946, 4027, 4036, 3955
3124, 3946, 4027, 4036, 3955, 3947, 4028, 4037, 3956
3125, 3947, 4028, 4037, 3956, 3948, 4029, 4038, 3957
3126, 3948, 4029, 4038, 3957, 3949, 4030, 4039, 3958
3127, 3949, 4030, 4039, 3958, 3950, 4031, 4040, 3959
3128, 3950, 4031, 4040, 3959, 3951, 4032, 4041, 3960
3129, 3952, 4033, 4042, 3961, 3953, 4034, 4043, 3962
3130, 3953, 4034, 4043, 3962, 3954, 4035, 4044, 3963
3131, 3954, 4035, 4044, 3963, 3955, 4036, 4045, 3964
3132, 3955, 4036, 4045, 3964, 3956, 4037, 4046, 3965
3133, 3956, 4037, 4046, 3965, 3957, 4038, 4047, 3966
3134, 3957, 4038, 4047, 3966, 3958, 4039, 4048, 3967
3135, 3958, 4039, 4048, 3967, 3959, 4040, 4049, 3968
3136, 3959, 4040, 4049, 3968, 3960, 4041, 4050, 3969
3137, 3970, 4051, 4060, 3979, 3971, 4052, 4061, 3980
3138, 3971, 4052, 4061, 3980, 3972, 4053, 4062, 3981
3139, 3972, 4053, 4062, 3981, 3973, 4054, 4063, 3982
3140, 3973, 4054, 4063, 3982, 3974, 4055, 4064, 3983
3141, 3974, 4055, 4064, 3983, 3975, 4056, 4065, 3984
3142, 3975, 4056, 4065, 3984, 3976, 4057, 4066, 3985
3143, 3976, 4057, 4066, 3985, 3977, 4058, 4067, 3986
3144, 3977, 4058, 4067, 3986, 3978, 4059, 4068, 3987
3145, 3979, 4060, 4069, 3988, 3980, 4061, 4070, 3989
3146, 3980, 4061, 4070, 3989, 3981, 4062, 4071, 3990
3147, 3981, 4062, 4071, 3990, 3982, 4063, 4072, 3991
3148, 3982, 4063, 4072, 3991, 3983, 4064, 4073, 3992
3149, 3983, 4064, 4073, 3992, 3984, 4065, 4074, 3993
3150, 3984, 4065, 4074, 3993, 3985, 4066, 4075, 3994
3151, 3985, 4066, 4075, 3994, 3986, 4067, 4076, 3995
3152, 3986, 4067, 4076, 3995, 3987, 4068, 4077, 3996
3153, 3988, 4069, 4078, 3997, 3989, 4070, 4079, 3998
3154, 3989, 4070, 4079, 3998, 3990, 4071, 4080, 3999
3155, 3990, 4071, 4080, 3999, 3991, 4072, 4081, 4000
3156, 3991, 4072, 4081, 4000, 3992, 4073, 4082, 4001
3157, 3992, 4073, 4082, 4001, 3993, 4074, 4083, 4002
3158, 3993, 4074, 4083, 4002, 3994, 4075, 4084, 4003
3159, 3994, 4075, 4084, 4003, 3995, 4076, 4085, 4004
3160, 3995, 4076, 4085, 4004, 3996, 4077, 4086, 4005
3161, 3997, 4078, 4087, 4006, 3998, 4079, 4088, 4007
3162, 3998, 4079, 4088, 4007, 3999, 4080, 4089, 4008
3163, 3999, 4080, 4089, 4008, 4000, 4081, 4090, 4009
3164, 4000, 4081, 4090, 4009, 4001, 4082, 4091, 4010
3165, 4001, 4082, 4091, 4010, 4002, 4083, 4092, 4011
3166, 4002, 4083, 4092, 4011, 4003, 4084, 4093, 4012
3167, 4003, 4084, 4093, 4012, 4004, 4085, 4094, 4013
3168, 4004, 4085, 4094, 4013, 4005, 4086, 4095, 4014
3169, 4006, 4087, 4096, 4015, 4007, 4088, 4097, 4016
3170, 4007, 4088, 4097, 4016, 4008, 4089, 4098, 4017
3171, 4008, 4089, 4098, 4017, 4009, 4090, 4099, 4018
3172, 4009, 4090, 4099, 4018, 4010, 4091, 4100, 4019
3173, 4010, 4091, 4100, 4019, 4011, 4092, 4101, 4020
3174, 4011, 4092, 4101, 4020, 4012, 4093, 4102, 4021
3175, 4012, 4093, 4102, 4021, 4013, 4094, 4103, 4022
3176, 4013, 4094, 4103, 4022, 4014, 4095, 4104, 4023
3177, 4015, 4096, 4105, 4024, 4016, 4097, 4106, 4025
3178, 4016, 4097, 4106, 4025, 4017, 4098, 4107, 4026
3179, 4017, 4098, 4107, 4026, 4018, 4099, 4108, 4027
3180, 4018, 4099, 4108, 4027, 4019, 4100, 4109, 4028
3181, 4019, 4100, 4109, 4028, 4020, 4101, 4110, 4029
3182, 4020, 4101, 4110, 4029, 4021, 4102, 4111, 4030
3183, 4021, 4102, 4111, 4030, 4022, 4103, 4112, 4031
3184, 4022, 4103, 4112, 4031, 4023, 4104, 4113, 4032
3185, 4024, 4105, 4114, 4033, 4025, 4106, 4115, 4034
3186, 4025, 4106, 4115, 4034, 4026, 4107, 4116, 4035
3187, 4026, 4107, 4116, 4035, 4027, 4108, 4117, 4036
3188, 4027, 4108, 4117, 4036, 4028, 4109, 4118, 4037
3189, 4028, 4109, 4118, 4037, 4029, 4110, 4119, 4038
3190, 4029, 4110, 4119, 4038, 4030, 4111, 4120, 4039
3191, 4030, 4111, 4120, 4039, 4031, 4112, 4121, 4040
3192, 4031, 4112, 4121, 4040, 4032, 4113, 4122, 4041
3193, 4033, 4114, 4123, 4042, 4034, 4115, 4124, 4043
3194, 4034, 4115, 4124, 4043, 4035, 4116, 4125, 4044
3195, 4035, 4116, 4125, 4044, 4036, 4117, 4126, 4045
3196, 4036, 4117, 4126, 4045, 4037, 4118, 4127, 4046
3197, 4037, 4118, 4127, 4046, 4038, 4119, 4128, 4047
3198, 4038, 4119, 4128, 4047, 4039, 4120, 4129, 4048
3199, 4039, 4120, 4129, 4048, 4040, 4121, 4130, 4049
3200, 4040, 4121, 4130, 4049, 4041, 4122, 4131, 4050
3201, 4051, 4132, 4141, 4060, 4052, 4133, 4142, 4061
3202, 4052, 4133, 4142, 4061, 4053, 4134, 4143, 4062
3203, 4053, 4134, 4143, 4062, 4054, 4135, 4144, 4063
3204, 4054, 4135, 4144, 4063, 4055, 4136, 4145, 4064
3205, 4055, 4136, 4145, 4064, 4056, 4137, 4146, 4065
3206, 4056, 4137, 4146, 4065, 4057, 4138, 4147, 4066
3207, 4057, 4138, 4147, 4066, 4058, 4139, 4148, 4067
3208, 4058, 4139, 4148, 4067, 4059, 4140, 4149, 4068
3209, 4060, 4141, 4150, 4069, 4061, 4142, 4151, 4070
3210, 4061, 4142, 4151, 4070, 4062, 4143, 4152, 4071
3211, 4062, 4143, 4152, 4071, 4063, 4144, 4153, 4072
3212, 4063, 4144, 4153, 4072, 4064, 4145, 4154, 4073
3213, 4064, 4145, 4154, 4073, 4065, 4146, 4155, 4074
3214, 4065, 4146, 4155, 4074, 4066, 4147, 4156, 4075
3215, 4066, 4147, 4156, 4075, 4067, 4148, 4157, 4076
3216, 4067, 4148, 4157, 4076, 4068, 4149, 4158, 4077
3217, 4069, 4150, 4159, 4078, 4070, 4151, 4160, 4079
3218, 4070, 4151, 4160, 4079, 4071, 4152, 4161, 4080
3219, 4071, 4152, 4161, 4080, 4072, 4153, 4162, 4081
3220, 4072, 4153, 4162, 4081, 4073, 4154, 4163, 4082
3221, 4073, 4154, 4163, 4082, 4074, 4155, 4164, 4083
3222, 4074, 4155, 4164, 4083, 4075, 4156, 4165, 4084
3223, 4075, 4156, 4165, 4084, 4076, 4157, 4166, 4085
3224, 4076, 4157, 4166, 4085, 4077, 4158, 4167, 4086
3225, 4078, 4159, 4168, 4087, 4079, 4160, 4169, 4088
3226, 4079, 4160, 4169, 4088, 4080, 4161, 4170, 4089
3227, 4080, 4161, 4170, 4089, 4081, 4162, 4171, 4090
3228, 4081, 4162, 4171, 4090, 4082, 4163, 4172, 4091
3229, 4082, 4163, 4172, 4091, 4083, 4164, 4173, 4092
3230, 4083, 4164, 4173, 4092, 4084, 4165, 4174, 4093
3231, 4084, 4165, 4174, 4093, 4085, 4166, 4175, 4094
3232, 4085, 4166, 4175, 4094, 4086, 4167, 4176, 4095
3233, 4087, 4168, 4177, 4096, 4088, 4169, 4178, 4097
3234, 4088, 4169, 4178, 4097, 4089, 4170, 4179, 4098
3235, 4089, 4170, 4179, 4098, 4090, 4171, 4180, 4099
3236, 4090, 4171, 4180, 4099, 4091, 4172, 4181, 4100
3237, 4091, 4172, 4181, 4100, 4092, 4173, 4182, 4101
3238, 4092, 4173, 4182, 4101, 4093, 4174, 4183, 4102
3239, 4093, 4174, 4183, 4102, 4094, 4175, 4184, 4103
3240, 4094, 4175, 4184, 4103, 4095, 4176, 4185, 4104
3241, 4096, 4177, 4186, 4105, 4097, 4178, 4187, 4106
3242, 4097, 4178, 4187, 4106, 4098, 4179, 4188, 4107
3243, 4098, 4179, 4188, 4107, 4099, 4180, 4189, 4108
3244, 4099, 4180, 4189, 4108, 4100, 4181, 4190, 4109
3245, 4100, 4181, 4190, 4109, 4101, 4182, 4191, 4110
3246, 4101, 4182, 4191, 4110, 4102, 4183, 4192, 4111
3247, 4102, 4183, 4192, 4111, 4103, 4184, 4193, 4112
3248, 4103, 4184, 4193, 4112, 4104, 4185, 4194, 4113
3249, 4105, 4186, 4195, 4114, 4106, 4187, 4196, 4115
3250, 4106, 4187, 4196, 4115, 4107, 4188, 4197, 4116
3251, 4107, 4188, 4197, 4116, 4108, 4189, 4198, 4117
3252, 4108, 4189, 4198, 4117, 4109, 4190, 4199, 4118
3253, 4109, 4190, 4199, 4118, 4110, 4191, 4200, 4119
3254, 4110, 4191, 4200, 4119, 4111, 4192, 4201, 4120
3255, 4111, 4192, 4201, 4120, 4112, 4193, 4202, 4121
3256, 4112, 4193, 4202, 4121, 4113, 4194, 4203, 4122
3257, 4114, 4195, 4204, 4123, 4115, 4196, 4205, 4124
3258, 4115, 4196, 4205, 4124, 4116, 4197, 4206, 4125
3259, 4116, 4197, 4206, 4125, 4117, 4198, 4207, 4126
3260, 4117, 4198, 4207, 4126, 4118, 4199, 4208, 4127
3261, 4118, 4199, 4208, 4127, 4119, 4200, 4209, 4128
3262, 4119, 4200, 4209, 4128, 4120, 4201, 4210, 4129
3263, 4120, 4201, 4210, 4129, 4121, 4202, 4211, 4130
3264, 4121, 4202, 4211, 4130, 4122, 4203, 4212, 4131
3265, 4132, 4213, 4222, 4141, 4133, 4214, 4223, 4142
3266, 4133, 4214, 4223, 4142, 4134, 4215, 4224, 4143
3267, 4134, 4215, 4224, 4143, 4135, 4216, 4225, 4144
3268, 4135, 4216, 4225, 4144, 4136, 4217, 4226, 4145
3269, 4136, 4217, 4226, 4145, 4137, 4218, 4227, 4146
3270, 4137, 4218, 4227, 4146, 4138, 4219, 4228, 4147
3271, 4138, 4219, 4228, 4147, 4139, 4220, 4229, 4148
3272, 4139, 4220, 4229, 4148, 4140, 4221, 4230, 4149
3273, 4141, 4222, 4231, 4150, 4142, 4223, 4232, 4151
3274, 4142, 4223, 4232, 4151, 4143, 4224, 4233, 4152
3275, 4143, 4224, 4233, 4152, 4144, 4225, 4234, 4153
3276, 4144, 4225, 4234, 4153, 4145, 4226, 4235, 4154
3277, 4145, 4226, 4235, 4154, 4146, 4227, 4236, 4155
3278, 4146, 4227, 4236, 4155, 4147, 4228, 4237, 4156
3279, 4147, 4228, 4237, 4156, 4148, 4229, 4238, 4157
3280, 4148, 4229, 4238, 4157, 4149, 4230, 4239, 4158
3281, 4150, 4231, 4240, 4159, 4151, 4232, 4241, 4160
3282, 4151, 4232, 4241, 4160, 4152, 4233, 4242, 4161
3283, 4152, 4233, 4242, 4161, 4153, 4234, 4243, 4162
3284, 4153, 4234, 4243, 4162, 4154, 4235, 4244, 4163
3285, 4154, 4235, 4244, 4163, 4155, 4236, 4245, 4164
3286, 4155, 4236, 4245, 4164, 4156, 4237, 4246, 4165
3287, 4156, 4237, 4246, 4165, 4157, 4238, 4247, 4166
3288, 4157, 4238, 4247, 4166, 4158, 4239, 4248, 4167
3289, 4159, 4240, 4249, 4168, 4160, 4241, 4250, 4169
3290, 4160, 4241, 4250, 4169, 4161, 4242, 4251, 4170
3291, 4161, 4242, 4251, 4170, 4162, 4243, 4252, 4171
3292, 4162, 4243, 4252, 4171, 4163, 4244, 4253, 4172
3293, 4163, 4244, 4253, 4172, 4164, 4245, 4254, 4173
3294, 4164, 4245, 4254, 4173, 4165, 4246, 4255, 4174
3295, 4165, 4246, 4255, 4174, 4166, 4247, 4256, 4175
3296, 4166, 4247, 4256, 4175, 4167, 4248, 4257, 4176
3297, 4168, 4249, 4258, 4177, 4169, 4250, 4259, 4178
3298, 4169, 4250, 4259, 4178, 4170, 4251, 4260, 4179
3299, 4170, 4251, 4260, 4179, 4171, 4252, 4261, 4180
3300, 4171, 4252, 4261, 4180, 4172, 4253, 4262, 4181
3301, 4172, 4253, 4262, 4181, 4173, 4254, 4263, 4182
3302, 4173, 4254, 4263, 4182, 4174, 4255, 4264, 4183
3303, 4174, 4255, 4264, 4183, 4175, 4256, 4265, 4184
3304, 4175, 4256, 4265, 4184, 4176, 4257, 4266, 4185
3305, 4177, 4258, 4267, 4186, 4178, 4259, 4268, 4187
3306, 4178, 4259, 4268, 4187, 4179, 4260, 4269, 4188
3307, 4179, 4260, 4269, 4188, 4180, 4261, 4270, 4189
3308, 4180, 4261, 4270, 4189, 4181, 4262, 4271, 4190
3309, 4181, 4262, 4271, 4190, 4182, 4263, 4272, 4191
3310, 4182, 4263, 4272, 4191, 4183, 4264, 4273, 4192
3311, 4183, 4264, 4273, 4192, 4184, 4265, 4274, 4193
3312, 4184, 4265, 4274, 4193, 4185, 4266, 4275, 4194
3313, 4186, 4267, 4276, 4195, 4187, 4268, 4277, 4196
3314, 4187, 4268, 4277, 4196, 4188, 4269, 4278, 4197
3315, 4188, 4269, 4278, 4197, 4189, 4270, 4279, 4198
3316, 4189, 4270, 4279, 4198, 4190, 4271, 4280, 4199
3317, 4190, 4271, 4280, 4199, 4191, 4272, 4281, 4200
3318, 4191, 4272, 4281, 4200, 4192, 4273, 4282, 4201
3319, 4192, 4273, 4282, 4201, 4193, 4274, 4283, 4202
3320, 4193, 4274, 4283, 4202, 4194, 4275, 4284, 4203
3321, 4195, 4276, 4285, 4204, 4196, 4277, 4286, 4205
3322, 4196, 4277, 4286, 4205, 4197, 4278, 4287, 4206
3323, 4197, 4278, 4287, 4206, 4198, 4279, 4288, 4207
3324, 4198, 4279, 4288, 4207, 4199, 4280, 4289, 4208
3325, 4199, 4280, 4289, 4208, 4200, 4281, 4290, 4209
3326, 4200, 4281, 4290, 4209, 4201, 4282, 4291, 4210
3327, 4201, 4282, 4291, 4210, 4202, 4283, 4292, 4211
3328, 4202, 4283, 4292, 4211, 4203, 4284, 4293, 4212
3329, 4213, 4294, 4303, 4222, 4214, 4295, 4304, 4223
3330, 4214, 4295, 4304, 4223, 4215, 4296, 4305, 4224
3331, 4215, 4296, 4305, 4224, 4216, 4297, 4306, 4225
3332, 4216, 4297, 4306, 4225, 4217, 4298, 4307, 4226
3333, 4217, 4298, 4307, 4226, 4218, 4299, 4308, 4227
3334, 4218, 4299, 4308, 4227, 4219, 4300, 4309, 4228
3335, 4219, 4300, 4309, 4228, 4220, 4301, 4310, 4229
3336, 4220, 4301, 4310, 4229, 4221, 4302, 4311, 4230
3337, 4222, 4303, 4312, 4231, 4223, 4304, 4313, 4232
3338, 4223, 4304, 4313, 4232, 4224, 4305, 4314, 4233
3339, 4224, 4305, 4314, 4233, 4225, 4306, 4315, 4234
3340, 4225, 4306, 4315, 4234, 4226, 4307, 4316, 4235
3341, 4226, 4307, 4316, 4235, 4227, 4308, 4317, 4236
3342, 4227, 4308, 4317, 4236, 4228, 4309, 4318, 4237
3343, 4228, 4309, 4318, 4237, 4229, 4310, 4319, 4238
3344, 4229, 4310, 4319, 4238, 4230, 4311, 4320, 4239
3345, 4231, 4312, 4321, 4240, 4232, 4313, 4322, 4241
3346, 4232, 4313, 4322, 4241, 4233, 4314, 4323, 4242
3347, 4233, 4314, 4323, 4242, 4234, 4315, 4324, 4243
3348, 4234, 4315, 4324, 4243, 4235, 4316, 4325, 4244
3349, 4235, 4316, 4325, 4244, 4236, 4317, 4326, 4245
3350, 4236, 4317, 4326, 4245, 4237, 4318, 4327, 4246
3351, 4237, 4318, 4327, 4246, 4238, 4319, 4328, 4247
3352, 4238, 4319, 4328, 4247, 4239, 4320, 4329, 4248
3353, 4240, 4321, 4330, 4249, 4241, 4322, 4331, 4250
3354, 4241, 4322, 4331, 4250, 4242, 4323, 4332, 4251
3355, 4242, 4323, 4332, 4251, 4243, 4324, 4333, 4252
3356, 4243, 4324, 4333, 4252, 4244, 4325, 4334, 4253
3357, 4244, 4325, 4334, 4253, 4245, 4326, 4335, 4254
3358, 4245, 4326, 4335, 4254, 4246, 4327, 4336, 4255
3359, 4246, 4327, 4336, 4255, 4247, 4328, 4337, 4256
3360, 4247, 4328, 4337, 4256, 4248, 4329, 4338, 4257
3361, 4249, 4330, 4339, 4258, 4250, 4331, 4340, 4259
3362, 4250, 4331, 4340, 4259, 4251, 4332, 4341, 4260
3363, 4251, 4332, 4341, 4260, 4252, 4333, 4342, 4261
3364, 4252, 4333, 4342, 4261, 4253, 4334, 4343, 4262
3365, 4253, 4334, 4343, 4262, 4254, 4335, 4344, 4263
3366, 4254, 4335, 4344, 4263, 4255, 4336, 4345, 4264
3367, 4255, 4336, 4345, 4264, 4256, 4337, 4346, 4265
3368, 4256, 4337, 4346, 4265, 4257, 4338, 4347, 4266
3369, 4258, 4339, 4348, 4267, 4259, 4340, 4349, 4268
3370, 4259, 4340, 4349, 4268, 4260, 4341, 4350, 4269
3371, 4260, 4341, 4350, 4269, 4261, 4342, 4351, 4270
3372, 4261, 4342, 4351, 4270, 4262, 4343, 4352, 4271
3373, 4262, 4343, 4352, 4271, 4263, 4344, 4353, 4272
3374, 4263, 4344, 4353, 4272, 4264, 4345, 4354, 4273
3375, 4264, 4345, 4354, 4273, 4265, 4346, 4355, 4274
3376, 4265, 4346, 4355, 4274, 4266, 4347, 4356, 4275
3377, 4267, 4348, 4357, 4276, 4268, 4349, 4358, 4277
3378, 4268, 4349, 4358, 4277, 4269, 4350, 4359, 4278
3379, 4269, 4350, 4359, 4278, 4270, 4351, 4360, 4279
3380, 4270, 4351, 4360, 4279, 4271, 4352, 4361, 4280
3381, 4271, 4352, 4361, 4280, 4272, 4353, 4362, 4281
3382, 4272, 4353, 4362, 4281, 4273, 4354, 4363, 4282
3383, 4273, 4354, 4363, 4282, 4274, 4355, 4364, 4283
3384, 4274, 4355, 4364, 4283, 4275, 4356, 4365, 4284
3385, 4276, 4357, 4366, 4285, 4277, 4358, 4367, 4286
3386, 4277, 4358, 4367, 4286, 4278, 4359, 4368, 4287
3387, 4278, 4359, 4368, 4287, 4279, 4360, 4369, 4288
3388, 4279, 4360, 4369, 4288, 4280, 4361, 4370, 4289
3389, 4280, 4361, 4370, 4289, 4281, 4362, 4371, 4290
3390, 4281, 4362, 4371, 4290, 4282, 4363, 4372, 4291
3391, 4282, 4363, 4372, 4291, 4283, 4364, 4373, 4292
3392, 4283, 4364, 4373, 4292, 4284, 4365, 4374, 4293
3393, 4294, 4375, 4384, 4303, 4295, 4376, 4385, 4304
3394, 4295, 4376, 4385, 4304, 4296, 4377, 4386, 4305
3395, 4296, 4377, 4386, 4305, 4297, 4378, 4387, 4306
3396, 4297, 4378, 4387, 4306, 4298, 4379, 4388, 4307
3397, 4298, 4379, 4388, 4307, 4299, 4380, 4389, 4308
3398, 4299, 4380, 4389, 4308, 4300, 4381, 4390, 4309
3399, 4300, 4381, 4390, 4309, 4301, 4382, 4391, 4310
3400, 4301, 4382, 4391, 4310, 4302, 4383, 4392, 4311
3401, 4303, 4384, 4393, 4312, 4304, 4385, 4394, 4313
3402, 4304, 4385, 4394, 4313, 4305, 4386, 4395, 4314
3403, 4305, 4386, 4395, 4314, 4306, 4387, 4396, 4315
3404, 4306, 4387, 4396, 4315, 4307, 4388, 4397, 4316
3405, 4307, 4388, 4397, 4316, 4308, 4389, 4398, 4317
3406, 4308, 4389, 4398, 4317, 4309, 4390, 4399, 4318
3407, 4309, 4390, 4399, 4318, 4310, 4391, 4400, 4319
3408, 4310, 4391, 4400, 4319, 4311, 4392, 4401, 4320
3409, 4312, 4393, 4402, 4321, 4313, 4394, 4403, 4322
3410, 4313, 4394, 4403, 4322, 4314, 4395, 4404, 4323
3411, 4314, 4395, 4404, 4323, 4315, 4396, 4405, 4324
3412, 4315, 4396, 4405, 4324, 4316, 4397, 4406, 4325
3413, 4316, 4397, 4406, 4325, 4317, 4398, 4407, 4326
3414, 4317, 4398, 4407, 4326, 4318, 4399, 4408, 4327
3415, 4318, 4399, 4408, 4327, 4319, 4400, 4409, 4328
3416, 4319, 4400, 4409, 4328, 4320, 4401, 4410, 4329
3417, 4321, 4402, 4411, 4330, 4322, 4403, 4412, 4331
3418, 4322, 4403, 4412, 4331, 4323, 4404, 4413, 4332
3419, 4323, 4404, 4413, 4332, 4324, 4405, 4414, 4333
3420, 4324, 4405, 4414, 4333, 4325, 4406, 4415, 4334
3421, 4325, 4406, 4415, 4334, 4326, 4407, 4416, 4335
3422, 4326, 4407, 4416, 4335, 4327, 4408, 4417, 4336
3423, 4327, 4408, 4417, 4336, 4328, 4409, 4418, 4337
3424, 4328, 4409, 4418, 4337, 4329, 4410, 4419, 4338
3425, 4330, 4411, 4420, 4339, 4331, 4412, 4421, 4340
3426, 4331, 4412, 4421, 4340, 4332, 4413, 4422, 4341
3427, 4332, 4413, 4422, 4341, 4333, 4414, 4423, 4342
3428, 4333, 4414, 4423, 4342, 4334, 4415, 4424, 4343
3429, 4334, 4415, 4424, 4343, 4335, 4416, 4425, 4344
3430, 4335, 4416, 4425, 4344, 4336, 4417, 4426, 4345
3431, 4336, 4417, 4426, 4345, 4337, 4418, 4427, 4346
3432, 4337, 4418, 4427, 4346, 4338, 4419, 4428, 4347
3433, 4339, 4420, 4429, 4348, 4340, 4421, 4430, 4349
3434, 4340, 4421, 4430, 4349, 4341, 4422, 4431, 4350
3435, 4341, 4422, 4431, 4350, 4342, 4423, 4432, 4351
3436, 4342, 4423, 4432, 4351, 4343, 4424, 4433, 4352
3437, 4343, 4424, 4433, 4352, 4344, 4425, 4434, 4353
3438, 4344, 4425, 4434, 4353, 4345, 4426, 4435, 4354
3439, 4345, 4426, 4435, 4354, 4346, 4427, 4436, 4355
3440, 4346, 4427, 4436, 4355, 4347, 4428, 4437, 4356
3441, 4348, 4429, 4438, 4357, 4349, 4430, 4439, 4358
3442, 4349, 4430, 4439, 4358, 4350, 4431, 4440, 4359
3443, 4350, 4431, 4440, 4359, 4351, 4432, 4441, 4360
3444, 4351, 4432, 4441, 4360, 4352, 4433, 4442, 4361
3445, 4352, 4433, 4442, 4361, 4353, 4434, 4443, 4362
3446, 4353, 4434, 4443, 4362, 4354, 4435, 4444, 4363
3447, 4354, 4435, 4444, 4363, 4355, 4436, 4445, 4364
3448, 4355, 4436, 4445, 4364, 4356, 4437, 4446, 4365
3449, 4357, 4438, 4447, 4366, 4358, 4439, 4448, 4367
3450, 4358, 4439, 4448, 4367, 4359, 4440, 4449, 4368
3451, 4359, 4440, 4449, 4368, 4360, 4441, 4450, 4369
3452, 4360, 4441, 4450, 4369, 4361, 4442, 4451, 4370
3453, 4361, 4442, 4451, 4370, 4362, 4443, 4452, 4371
3454, 4362, 4443, 4452, 4371, 4363, 4444, 4453, 4372
3455, 4363, 4444, 4453, 4372, 4364, 4445, 4454, 4373
3456, 4364, 4445, 4454, 4373, 4365, 4446, 4455, 4374
3457, 4375, 4456, 4465, 4384, 4376, 4457, 4466, 4385
3458, 4376, 4457, 4466, 4385, 4377, 4458, 4467, 4386
3459, 4377, 4458, 4467, 4386, 4378, 4459, 4468, 4387
3460, 4378, 4459, 4468, 4387, 4379, 4460, 4469, 4388
3461, 4379, 4460, 4469, 4388, 4380, 4461, 4470, 4389
3462, 4380, 4461, 4470, 4389, 4381, 4462, 4471, 4390
3463, 4381, 4462, 4471, 4390, 4382, 4463, 4472, 4391
3464, 4382, 4463, 4472, 4391, 4383, 4464, 4473, 4392
3465, 4384, 4465, 4474, 4393, 4385, 4466, 4475, 4394
3466, 4385, 4466, 4475, 4394, 4386, 4467, 4476, 4395
3467, 4386, 4467, 4476, 4395, 4387, 4468, 4477, 4396
3468, 4387, 4468, 4477, 4396, 4388, 4469, 4478, 4397
3469, 4388, 4469, 4478, 4397, 4389, 4470, 4479, 4398
3470, 4389, 4470, 4479, 4398, 4390, 4471, 4480, 4399
3471, 4390, 4471, 4480, 4399, 4391, 4472, 4481, 4400
3472, 4391, 4472, 4481, 4400, 4392, 4473, 4482, 4401
3473, 4393, 4474, 4483, 4402, 4394, 4475, 4484, 4403
3474, 4394, 4475, 4484, 4403, 4395, 4476, 4485, 4404
3475, 4395, 4476, 4485, 4404, 4396, 4477, 4486, 4405
3476, 4396, 4477, 4486, 4405, 4397, 4478, 4487, 4406
3477, 4397, 4478, 4487, 4406, 4398, 4479, 4488, 4407
3478, 4398, 4479, 4488, 4407, 4399, 4480, 4489, 4408
3479, 4399, 4480, 4489, 4408, 4400, 4481, 4490, 4409
3480, 4400, 4481, 4490, 4409, 4401, 4482, 4491, 4410
3481, 4402, 4483, 4492, 4411, 4403, 4484, 4493, 4412
3482, 4403, 4484, 4493, 4412, 4404, 4485, 4494, 4413
3483, 4404, 4485, 4494, 4413, 4405, 4486, 4495, 4414
3484, 4405, 4486, 4495, 4414, 4406, 4487, 4496, 4415
3485, 4406, 4487, 4496, 4415, 4407, 4488, 4497, 4416
3486, 4407, 4488, 4497, 4416, 4408, 4489, 4498, 4417
3487, 4408, 4489, 4498, 4417, 4409, 4490, 4499, 4418
3488, 4409, 4490, 4499, 4418, 4410, 4491, 4500, 4419
3489, 4411, 4492, 4501, 4420, 4412, 4493, 4502, 4421
3490, 4412, 4493, 4502, 4421, 4413, 4494, 4503, 4422
3491, 4413, 4494, 4503, 4422, 4414, 4495, 4504, 4423
3492, 4414, 4495, 4504, 4423, 4415, 4496, 4505, 4424
3493, 4415, 4496, 4505, 4424, 4416, 4497, 4506, 4425
3494, 4416, 4497, 4506, 4425, 4417, 4498, 4507, 4426
3495, 4417, 4498, 4507, 4426, 4418, 4499, 4508, 4427
3496, 4418, 4499, 4508, 4427, 4419, 4500, 4509, 4428
3497, 4420, 4501, 4510, 4429, 4421, 4502, 4511, 4430
3498, 4421, 4502, 4511, 4430, 4422, 4503, 4512, 4431
3499, 4422, 4503, 4512, 4431, 4423, 4504, 4513, 4432
3500, 4423, 4504, 4513, 4432, 4424, 4505, 4514, 4433
3501, 4424, 4505, 4514, 4433, 4425, 4506, 4515, 4434
3502, 4425, 4506, 4515, 4434, 4426, 4507, 4516, 4435
3503, 4426, 4507, 4516, 4435, 4427, 4508, 4517, 4436
3504, 4427, 4508, 4517, 4436, 4428, 4509, 4518, 4437
3505, 4429, 4510, 4519, 4438, 4430, 4511, 4520, 4439
3506, 4430, 4511, 4520, 4439, 4431, 4512, 4521, 4440
3507, 4431, 4512, 4521, 4440, 4432, 4513, 4522, 4441
3508, 4432, 4513, 4522, 4441, 4433, 4514, 4523, 4442
3509, 4433, 4514, 4523, 4442, 4434, 4515, 4524, 4443
3510, 4434, 4515, 4524, 4443, 4435, 4516, 4525, 4444
3511, 4435, 4516, 4525, 4444, 4436, 4517, 4526, 4445
3512, 4436, 4517, 4526, 4445, 4437, 4518, 4527, 4446
3513, 4438, 4519, 4528, 4447, 4439, 4520, 4529, 4448
3514, 4439, 4520, 4529, 4448, 4440, 4521, 4530, 4449
3515, 4440, 4521, 4530, 4449, 4441, 4522, 4531, 4450
3516, 4441, 4522, 4531, 4450, 4442, 4523, 4532, 4451
3517, 4442, 4523, 4532, 4451, 4443, 4524, 4533, 4452
3518, 4443, 4524, 4533, 4452, 4444, 4525, 4534, 4453
3519, 4444, 4525, 4534, 4453, 4445, 4526, 4535, 4454
3520, 4445, 4526, 4535, 4454, 4446, 4527, 4536, 4455
3521, 4456, 4537, 4546, 4465, 4457, 4538, 4547, 4466
3522, 4457, 4538, 4547, 4466, 4458, 4539, 4548, 4467
3523, 4458, 4539, 4548, 4467, 4459, 4540, 4549, 4468
3524, 4459, 4540, 4549, 4468, 4460, 4541, 4550, 4469
3525, 4460, 4541, 4550, 4469, 4461, 4542, 4551, 4470
3526, 4461, 4542, 4551, 4470, 4462, 4543, 4552, 4471
3527, 4462, 4543, 4552, 4471, 4463, 4544, 4553, 4472
3528, 4463, 4544, 4553, 4472, 4464, 4545, 4554, 4473
3529, 4465, 4546, 4555, 4474, 4466, 4547, 4556, 4475
3530, 4466, 4547, 4556, 4475, 4467, 4548, 4557, 4476
3531, 4467, 4548, 4557, 4476, 4468, 4549, 4558, 4477
3532, 4468, 4549, 4558, 4477, 4469, 4550, 4559, 4478
3533, 4469, 4550, 4559, 4478, 4470, 4551, 4560, 4479
3534, 4470, 4551, 4560, 4479, 4471, 4552, 4561, 4480
3535, 4471, 4552, 4561, 4480, 4472, 4553, 4562, 4481
3536, 4472, 4553, 4562, 4481, 4473, 4554, 4563, 4482
3537, 4474, 4555, 4564, 4483, 4475, 4556, 4565, 4484
3538, 4475, 4556, 4565, 4484, 4476, 4557, 4566, 4485
3539, 4476, 4557, 4566, 4485, 4477, 4558, 4567, 4486
3540, 4477, 4558, 4567, 4486, 4478, 4559, 4568, 4487
3541, 4478, 4559, 4568, 4487, 4479, 4560, 4569, 4488
3542, 4479, 4560, 4569, 4488, 4480, 4561, 4570, 4489
3543, 4480, 4561, 4570, 4489, 4481, 4562, 4571, 4490
3544, 4481, 4562, 4571, 4490, 4482, 4563, 4572, 4491
3545, 4483, 4564, 4573, 4492, 4484, 4565, 4574, 4493
3546, 4484, 4565, 4574, 4493, 4485, 4566, 4575, 4494
3547, 4485, 4566, 4575, 4494, 4486, 4567, 4576, 4495
3548, 4486, 4567, 4576, 4495, 4487, 4568, 4577, 4496
3549, 4487, 4568, 4577, 4496, 4488, 4569, 4578, 4497
3550, 4488, 4569, 4578, 4497, 4489, 4570, 4579, 4498
3551, 4489, 4570, 4579, 4498, 4490, 4571, 4580, 4499
3552, 4490, 4571, 4580, 4499, 4491, 4572, 4581, 4500
3553, 4492, 4573, 4582, 4501, 4493, 4574, 4583, 4502
3554, 4493, 4574, 4583, 4502, 4494, 4575, 4584, 4503
3555, 4494, 4575, 4584, 4503, 4495, 4576, 4585, 4504
3556, 4495, 4576, 4585, 4504, 4496, 4577, 4586, 4505
3557, 4496, 4577, 4586, 4505, 4497, 4578, 4587, 4506
3558, 4497, 4578, 4587, 4506, 4498, 4579, 4588, 4507
3559, 4498, 4579, 4588, 4507, 4499, 4580, 4589, 4508
3560, 4499, 4580, 4589, 4508, 4500, 4581, 4590, 4509
3561, 4501, 4582, 4591, 4510, 4502, 4583, 4592, 4511
3562, 4502, 4583, 4592, 4511, 4503, 4584, 4593, 4512
3563, 4503, 4584, 4593, 4512, 4504, 4585, 4594, 4513
3564, 4504, 4585, 4594, 4513, 4505, 4586, 4595, 4514
3565, 4505, 4586, 4595, 4514, 4506, 4587, 4596, 4515
3566, 4506, 4587, 4596, 4515, 4507, 4588, 4597, 4516
3567, 4507, 4588, 4597, 4516, 4508, 4589, 4598, 4517
3568, 4508, 4589, 4598, 4517, 4509, 4590, 4599, 4518
3569, 4510, 4591, 4600, 4519, 4511, 4592, 4601, 4520
3570, 4511, 4592, 4601, 4520, 4512, 4593, 4602, 4521
3571, 4512, 4593, 4602, 4521, 4513, 4594, 4603, 4522
3572, 4513, 4594, 4603, 4522, 4514, 4595, 4604, 4523
3573, 4514, 4595, 4604, 4523, 4515, 4596, 4605, 4524
3574, 4515, 4596, 4605, 4524, 4516, 4597, 4606, 4525
3575, 4516, 4597, 4606, 4525, 4517, 4598, 4607, 4526
3576, 4517, 4598, 4607, 4526, 4518, 4599, 4608, 4527
3577, 4519, 4600, 4609, 4528, 4520, 4601, 4610, 4529
3578, 4520, 4601, 4610, 4529, 4521, 4602, 4611, 4530
3579, 4521, 4602, 4611, 4530, 4522, 4603, 4612, 4531
3580, 4522, 4603, 4612, 4531, 4523, 4604, 4613, 4532
3581, 4523, 4604, 4613, 4532, 4524, 4605, 4614, 4533
3582, 4524, 4605, 4614, 4533, 4525, 4606, 4615, 4534
3583, 4525, 4606, 4615, 4534, 4526, 4607, 4616, 4535
3584, 4526, 4607, 4616, 4535, 4527, 4608, 4617, 4536
3585, 4537, 4618, 4627, 4546, 4538, 4619, 4628, 4547
3586, 4538, 4619, 4628, 4547, 4539, 4620, 4629, 4548
3587, 4539, 4620, 4629, 4548, 4540, 4621, 4630, 4549
3588, 4540, 4621, 4630, 4549, 4541, 4622, 4631, 4550
3589, 4541, 4622, 4631, 4550, 4542, 4623, 4632, 4551
3590, 4542, 4623, 4632, 4551, 4543, 4624, 4633, 4552
3591, 4543, 4624, 4633, 4552, 4544, 4625, 4634, 4553
3592, 4544, 4625, 4634, 4553, 4545, 4626, 4635, 4554
3593, 4546, 4627, 4636, 4555, 4547, 4628, 4637, 4556
3594, 4547, 4628, 4637, 4556, 4548, 4629, 4638, 4557
3595, 4548, 4629, 4638, 4557, 4549, 4630, 4639, 4558
3596, 4549, 4630, 4639, 4558, 4550, 4631, 4640, 4559
3597, 4550, 4631, 4640, 4559, 4551, 4632, 4641, 4560
3598, 4551, 4632, 4641, 4560, 4552, 4633, 4642, 4561
3599, 4552, 4633, 4642, 4561, 4553, 4634, 4643, 4562
3600, 4553, 4634, 4643, 4562, 4554, 4635, 4644, 4563
3601, 4555, 4636, 4645, 4564, 4556, 4637, 4646, 4565
3602, 4556, 4637, 4646, 4565, 4557, 4638, 4647, 4566
3603, 4557, 4638, 4647, 4566, 4558, 4639, 4648, 4567
3604, 4558, 4639, 4648, 4567, 4559, 4640, 4649, 4568
3605, 4559, 4640, 4649, 4568, 4560, 4641, 4650, 4569
3606, 4560, 4641, 4650, 4569, 4561, 4642, 4651, 4570
3607, 4561, 4642, 4651, 4570, 4562, 4643, 4652, 4571
3608, 4562, 4643, 4652, 4571, 4563, 4644, 4653, 4572
3609, 4564, 4645, 4654, 4573, 4565, 4646, 4655, 4574
3610, 4565, 4646, 4655, 4574, 4566, 4647, 4656, 4575
3611, 4566, 4647, 4656, 4575, 4567, 4648, 4657, 4576
3612, 4567, 4648, 4657, 4576, 4568, 4649, 4658, 4577
3613, 4568, 4649, 4658, 4577, 4569, 4650, 4659, 4578
3614, 4569, 4650, 4659, 4578, 4570, 4651, 4660, 4579
3615, 4570, 4651, 4660, 4579, 4571, 4652, 4661, 4580
3616, 4571, 4652, 4661, 4580, 4572, 4653, 4662, 4581
3617, 4573, 4654, 4663, 4582, 4574, 4655, 4664, 4583
3618, 4574, 4655, 4664, 4583, 4575, 4656, 4665, 4584
3619, 4575, 4656, 4665, 4584, 4576, 4657, 4666, 4585
3620, 4576, 4657, 4666, 4585, 4577, 4658, 4667, 4586
3621, 4577, 4658, 4667, 4586, 4578, 4659, 4668, 4587
3622, 4578, 4659, 4668, 4587, 4579, 4660, 4669, 4588
3623, 4579, 4660, 4669, 4588, 4580, 4661, 4670, 4589
3624, 4580, 4661, 4670, 4589, 4581, 4662, 4671, 4590
3625, 4582, 4663, 4672, 4591, 4583, 4664, 4673, 4592
3626, 4583, 4664, 4673, 4592, 4584, 4665, 4674, 4593
3627, 4584, 4665, 4674, 4593, 4585, 4666, 4675, 4594
3628, 4585, 4666, 4675, 4594, 4586, 4667, 4676, 4595
3629, 4586, 4667, 4676, 4595, 4587, 4668, 4677, 4596
3630, 4587, 4668, 4677, 4596, 4588, 4669, 4678, 4597
3631, 4588, 4669, 4678, 4597, 4589, 4670, 4679, 4598
3632, 4589, 4670, 4679, 4598, 4590, 4671, 4680, 4599
3633, 4591, 4672, 4681, 4600, 4592, 4673, 4682, 4601
3634, 4592, 4673, 4682, 4601, 4593, 4674, 4683, 4602
3635, 4593, 4674, 4683, 4602, 4594, 4675, 4684, 4603
3636, 4594, 4675, 4684, 4603, 4595, 4676, 4685, 4604
3637, 4595, 4676, 4685, 4604, 4596, 4677, 4686, 4605
3638, 4596, 4677, 4686, 4605, 4597, 4678, 4687, 4606
3639, 4597, 4678, 4687, 4606, 4598, 4679, 4688, 4607
3640, 4598, 4679, 4688, 4607, 4599, 4680, 4689, 4608
3641, 4600, 4681, 4690, 4609, 4601, 4682, 4691, 4610
3642, 4601, 4682, 4691, 4610, 4602, 4683, 4692, 4611
3643, 4602, 4683, 4692, 4611, 4603, 4684, 4693, 4612
3644, 4603, 4684, 4693, 4612, 4604, 4685, 4694, 4613
3645, 4604, 4685, 4694, 4613, 4605, 4686, 4695, 4614
3646, 4605, 4686, 4695, 4614, 4606, 4687, 4696, 4615
3647, 4606, 4687, 4696, 4615, 4607, 4688, 4697, 4616
3648, 4607, 4688, 4697, 4616, 4608, 4689, 4698, 4617
3649, 4618, 4699, 4708, 4627, 4619, 4700, 4709, 4628
3650, 4619, 4700, 4709, 4628, 4620, 4701, 4710, 4629
3651, 4620, 4701, 4710, 4629, 4621, 4702, 4711, 4630
3652, 4621, 4702, 4711, 4630, 4622, 4703, 4712, 4631
3653, 4622, 4703, 4712, 4631, 4623, 4704, 4713, 4632
3654, 4623, 4704, 4713, 4632, 4624, 4705, 4714, 4633
3655, 4624, 4705, 4714, 4633, 4625, 4706, 4715, 4634
3656, 4625, 4706, 4715, 4634, 4626, 4707, 4716, 4635
3657, 4627, 4708, 4717, 4636, 4628, 4709, 4718, 4637
3658, 4628, 4709, 4718, 4637, 4629, 4710, 4719, 4638
3659, 4629, 4710, 4719, 4638, 4630, 4711, 4720, 4639
3660, 4630, 4711, 4720, 4639, 4631, 4712, 4721, 4640
3661, 4631, 4712, 4721, 4640, 4632, 4713, 4722, 4641
3662, 4632, 4713, 4722, 4641, 4633, 4714, 4723, 4642
3663, 4633, 4714, 4723, 4642, 4634, 4715, 4724, 4643
3664, 4634, 4715, 4724, 4643, 4635, 4716, 4725, 4644
3665, 4636, 4717, 4726, 4645, 4637, 4718, 4727, 4646
3666, 4637, 4718, 4727, 4646, 4638, 4719, 4728, 4647
3667, 4638, 4719, 4728, 4647, 4639, 4720, 4729, 4648
3668, 4639, 4720, 4729, 4648, 4640, 4721, 4730, 4649
3669, 4640, 4721, 4730, 4649, 4641, 4722, 4731, 4650
3670, 4641, 4722, 4731, 4650, 4642, 4723, 4732, 4651
3671, 4642, 4723, 4732, 4651, 4643, 4724, 4733, 4652
3672, 4643, 4724, 4733, 4652, 4644, 4725, 4734, 4653
3673, 4645, 4726, 4735, 4654, 4646, 4727, 4736, 4655
3674, 4646, 4727, 4736, 4655, 4647, 4728, 4737, 4656
3675, 4647, 4728, 4737, 4656, 4648, 4729, 4738, 4657
3676, 4648, 4729, 4738, 4657, 4649, 4730, 4739, 4658
3677, 4649, 4730, 4739, 4658, 4650, 4731, 4740, 4659
3678, 4650, 4731, 4740, 4659, 4651, 4732, 4741, 4660
3679, 4651, 4732, 4741, 4660, 4652, 4733, 4742, 4661
3680, 4652, 4733, 4742, 4661, 4653, 4734, 4743, 4662
3681, 4654, 4735, 4744, 4663, 4655, 4736, 4745, 4664
3682, 4655, 4736, 4745, 4664, 4656, 4737, 4746, 4665
3683, 4656, 4737, 4746, 4665, 4657, 4738, 4747, 4666
3684, 4657, 4738, 4747, 4666, 4658, 4739, 4748, 4667
3685, 4658, 4739, 4748, 4667, 4659, 4740, 4749, 4668
3686, 4659, 4740, 4749, 4668, 4660, 4741, 4750, 4669
3687, 4660, 4741, 4750, 4669, 4661, 4742, 4751, 4670
3688, 4661, 4742, 4751, 4670, 4662, 4743, 4752, 4671
3689, 4663, 4744, 4753, 4672, 4664, 4745, 4754, 4673
3690, 4664, 4745, 4754, 4673, 4665, 4746, 4755, 4674
3691, 4665, 4746, 4755, 4674, 4666, 4747, 4756, 4675
3692, 4666, 4747, 4756, 4675, 4667, 4748, 4757, 4676
3693, 4667, 4748, 4757, 4676, 4668, 4749, 4758, 4677
3694, 4668, 4749, 4758, 4677, 4669, 4750, 4759, 4678
3695, 4669, 4750, 4759, 4678, 4670, 4751, 4760, 4679
3696, 4670, 4751, 4760, 4679, 4671, 4752, 4761, 4680
3697, 4672, 4753, 4762, 4681, 4673, 4754, 4763, 4682
3698, 4673, 4754, 4763, 4682, 4674, 4755, 4764, 4683
3699, 4674, 4755, 4764, 4683, 4675, 4756, 4765, 4684
3700, 4675, 4756, 4765, 4684, 4676, 4757, 4766, 4685
3701, 4676, 4757, 4766, 4685, 4677, 4758, 4767, 4686
3702, 4677, 4758, 4767, 4686, 4678, 4759, 4768, 4687
3703, 4678, 4759, 4768, 4687, 4679, 4760, 4769, 4688
3704, 4679, 4760, 4769, 4688, 4680, 4761, 4770, 4689
3705, 4681, 4762, 4771, 4690, 4682, 4763, 4772, 4691
3706, 4682, 4763, 4772, 4691, 4683, 4764, 4773, 4692
3707, 4683, 4764, 4773, 4692, 4684, 4765, 4774, 4693
3708, 4684, 4765, 4774, 4693, 4685, 4766, 4775, 4694
3709, 4685, 4766, 4775, 4694, 4686, 4767, 4776, 4695
3710, 4686, 4767, 4776, 4695, 4687, 4768, 4777, 4696
3711, 4687, 4768, 4777, 4696, 4688, 4769, 4778, 4697
3712, 4688, 4769, 4778, 4697, 4689, 4770, 4779, 4698
3713, 4699, 4780, 4789, 4708, 4700, 4781, 4790, 4709
3714, 4700, 4781, 4790, 4709, 4701, 4782, 4791, 4710
3715, 4701, 4782, 4791, 4710, 4702, 4783, 4792, 4711
3716, 4702, 4783, 4792, 4711, 4703, 4784, 4793, 4712
3717, 4703, 4784, 4793, 4712, 4704, 4785, 4794, 4713
3718, 4704, 4785, 4794, 4713, 4705, 4786, 4795, 4714
3719, 4705, 4786, 4795, 4714, 4706, 4787, 4796, 4715
3720, 4706, 4787, 4796, 4715, 4707, 4788, 4797, 4716
3721, 4708, 4789, 4798, 4717, 4709, 4790, 4799, 4718
3722, 4709, 4790, 4799, 4718, 4710, 4791, 4800, 4719
3723, 4710, 4791, 4800, 4719, 4711, 4792, 4801, 4720
3724, 4711, 4792, 4801, 4720, 4712, 4793, 4802, 4721
3725, 4712, 4793, 4802, 4721, 4713, 4794, 4803, 4722
3726, 4713, 4794, 4803, 4722, 4714, 4795, 4804, 4723
3727, 4714, 4795, 4804, 4723, 4715, 4796, 4805, 4724
3728, 4715, 4796, 4805, 4724, 4716, 4797, 4806, 4725
3729, 4717, 4798, 4807, 4726, 4718, 4799, 4808, 4727
3730, 4718, 4799, 4808, 4727, 4719, 4800, 4809, 4728
3731, 4719, 4800, 4809, 4728, 4720, 4801, 4810, 4729
3732, 4720, 4801, 4810, 4729, 4721, 4802, 4811, 4730
3733, 4721, 4802, 4811, 4730, 4722, 4803, 4812, 4731
3734, 4722, 4803, 4812, 4731, 4723, 4804, 4813, 4732
3735, 4723, 4804, 4813, 4732, 4724, 4805, 4814, 4733
3736, 4724, 4805, 4814, 4733, 4725, 4806, 4815, 4734
3737, 4726, 4807, 4816, 4735, 4727, 4808, 4817, 4736
3738, 4727, 4808, 4817, 4736, 4728, 4809, 4818, 4737
3739, 4728, 4809, 4818, 4737, 4729, 4810, 4819, 4738
3740, 4729, 4810, 4819, 4738, 4730, 4811, 4820, 4739
3741, 4730, 4811, 4820, 4739, 4731, 4812, 4821, 4740
3742, 4731, 4812, 4821, 4740, 4732, 4813, 4822, 4741
3743, 4732, 4813, 4822, 4741, 4733, 4814, 4823, 4742
3744, 4733, 4814, 4823, 4742, 4734, 4815, 4824, 4743
3745, 4735, 4816, 4825, 4744, 4736, 4817, 4826, 4745
3746, 4736, 4817, 4826, 4745, 4737, 4818, 4827, 4746
3747, 4737, 4818, 4827, 4746, 4738, 4819, 4828, 4747
3748, 4738, 4819, 4828, 4747, 4739, 4820, 4829, 4748
3749, 4739, 4820, 4829, 4748, 4740, 4821, 4830, 4749
3750, 4740, 4821, 4830, 4749, 4741, 4822, 4831, 4750
3751, 4741, 4822, 4831, 4750, 4742, 4823, 4832, 4751
3752, 4742, 4823, 4832, 4751, 4743, 4824, 4833, 4752
3753, 4744, 4825, 4834, 4753, 4745, 4826, 4835, 4754
3754, 4745, 4826, 4835, 4754, 4746, 4827, 4836, 4755
3755, 4746, 4827, 4836, 4755, 4747, 4828, 4837, 4756
3756, 4747, 4828, 4837, 4756, 4748, 4829, 4838, 4757
3757, 4748, 4829, 4838, 4757, 4749, 4830, 4839, 4758
3758, 4749, 4830, 4839, 4758, 4750, 4831, 4840, 4759
3759, 4750, 4831, 4840, 4759, 4751, 4832, 4841, 4760
3760, 4751, 4832, 4841, 4760, 4752, 4833, 4842, 4761
3761, 4753, 4834, 4843, 4762, 4754, 4835, 4844, 4763
3762, 4754, 4835, 4844, 4763, 4755, 4836, 4845, 4764
3763, 4755, 4836, 4845, 4764, 4756, 4837, 4846, 4765
3764, 4756, 4837, 4846, 4765, 4757, 4838, 4847, 4766
3765, 4757, 4838, 4847, 4766, 4758, 4839, 4848, 4767
3766, 4758, 4839, 4848, 4767, 4759, 4840, 4849, 4768
3767, 4759, 4840, 4849, 4768, 4760, 4841, 4850, 4769
3768, 4760, 4841, 4850, 4769, 4761, 4842, 4851, 4770
3769, 4762, 4843, 4852, 4771, 4763, 4844, 4853, 4772
3770, 4763, 4844, 4853, 4772, 4764, 4845, 4854, 4773
3771, 4764, 4845, 4854, 4773, 4765, 4846, 4855, 4774
3772, 4765, 4846, 4855, 4774, 4766, 4847, 4856, 4775
3773, 4766, 4847, 4856, 4775, 4767, 4848, 4857, 4776
3774, 4767, 4848, 4857, 4776, 4768, 4849, 4858, 4777
3775, 4768, 4849, 4858, 4777, 4769, 4850, 4859, 4778
3776, 4769, 4850, 4859, 4778, 4770, 4851, 4860, 4779
3777, 4780, 4861, 4870, 4789, 4781, 4862, 4871, 4790
3778, 4781, 4862, 4871, 4790, 4782, 4863, 4872, 4791
3779, 4782, 4863, 4872, 4791, 4783, 4864, 4873, 4792
3780, 4783, 4864, 4873, 4792, 4784, 4865, 4874, 4793
3781, 4784, 4865, 4874, 4793, 4785, 4866, 4875, 4794
3782, 4785, 4866, 4875, 4794, 4786, 4867, 4876, 4795
3783, 4786, 4867, 4876, 4795, 4787, 4868, 4877, 4796
3784, 4787, 4868, 4877, 4796, 4788, 4869, 4878, 4797
3785, 4789, 4870, 4879, 4798, 4790, 4871, 4880, 4799
3786, 4790, 4871, 4880, 4799, 4791, 4872, 4881, 4800
3787, 4791, 4872, 4881, 4800, 4792, 4873, 4882, 4801
3788, 4792, 4873, 4882, 4801, 4793, 4874, 4883, 4802
3789, 4793, 4874, 4883, 4802, 4794, 4875, 4884, 4803
3790, 4794, 4875, 4884, 4803, 4795, 4876, 4885, 4804
3791, 4795, 4876, 4885, 4804, 4796, 4877, 4886, 4805
3792, 4796, 4877, 4886, 4805, 4797, 4878, 4887, 4806
3793, 4798, 4879, 4888, 4807, 4799, 4880, 4889, 4808
3794, 4799, 4880, 4889, 4808, 4800, 4881, 4890, 4809
3795, 4800, 4881, 4890, 4809, 4801, 4882, 4891, 4810
3796, 4801, 4882, 4891, 4810, 4802, 4883, 4892, 4811
3797, 4802, 4883, 4892, 4811, 4803, 4884, 4893, 4812
3798, 4803, 4884, 4893, 4812, 4804, 4885, 4894, 4813
3799, 4804, 4885, 4894, 4813, 4805, 4886, 4895, 4814
3800, 4805, 4886, 4895, 4814, 4806, 4887, 4896, 4815
3801, 4807, 4888, 4897, 4816, 4808, 4889, 4898, 4817
3802, 4808, 4889, 4898, 4817, 4809, 4890, 4899, 4818
3803, 4809, 4890, 4899, 4818, 4810, 4891, 4900, 4819
3804, 4810, 4891, 4900, 4819, 4811, 4892, 4901, 4820
3805, 4811, 4892, 4901, 4820, 4812, 4893, 4902, 4821
3806, 4812, 4893, 4902, 4821, 4813, 4894, 4903, 4822
3807, 4813, 4894, 4903, 4822, 4814, 4895, 4904, 4823
3808, 4814, 4895, 4904, 4823, 4815, 4896, 4905, 4824
3809, 4816, 4897, 4906, 4825, 4817, 4898, 4907, 4826
3810, 4817, 4898, 4907, 4826, 4818, 4899, 4908, 4827
3811, 4818, 4899, 4908, 4827, 4819, 4900, 4909, 4828
3812, 4819, 4900, 4909, 4828, 4820, 4901, 4910, 4829
3813, 4820, 4901, 4910, 4829, 4821, 4902, 4911, 4830
3814, 4821, 4902, 4911, 4830, 4822, 4903, 4912, 4831
3815, 4822, 4903, 4912, 4831, 4823, 4904, 4913, 4832
3816, 4823, 4904, 4913, 4832, 4824, 4905, 4914, 4833
3817, 4825, 4906, 4915, 4834, 4826, 4907, 4916, 4835
3818, 4826, 4907, 4916, 4835, 4827, 4908, 4917, 4836
3819, 4827, 4908, 4917, 4836, 4828, 4909, 4918, 4837
3820, 4828, 4909, 4918, 4837, 4829, 4910, 4919, 4838
3821, 4829, 4910, 4919, 4838, 4830, 4911, 4920, 4839
3822, 4830, 4911, 4920, 4839, 4831, 4912, 4921, 4840
3823, 4831, 4912, 4921, 4840, 4832, 4913, 4922, 4841
3824, 4832, 4913, 4922, 4841, 4833, 4914, 4923, 4842
3825, 4834, 4915, 4924, 4843, 4835, 4916, 4925, 4844
3826, 4835, 4916, 4925, 4844, 4836, 4917, 4926, 4845
3827, 4836, 4917, 4926, 4845, 4837, 4918, 4927, 4846
3828, 4837, 4918, 4927, 4846, 4838, 4919, 4928, 4847
3829, 4838, 4919, 4928, 4847, 4839, 4920, 4929, 4848
3830, 4839, 4920, 4929, 4848, 4840, 4921, 4930, 4849
3831, 4840, 4921, 4930, 4849, 4841, 4922, 4931, 4850
3832, 4841, 4922, 4931, 4850, 4842, 4923, 4932, 4851
3833, 4843, 4924, 4933, 4852, 4844, 4925, 4934, 4853
3834, 4844, 4925, 4934, 4853, 4845, 4926, 4935, 4854
3835, 4845, 4926, 4935, 4854, 4846, 4927, 4936, 4855
3836, 4846, 4927, 4936, 4855, 4847, 4928, 4937, 4856
3837, 4847, 4928, 4937, 4856, 4848, 4929, 4938, 4857
3838, 4848, 4929, 4938, 4857, 4849, 4930, 4939, 4858
3839, 4849, 4930, 4939, 4858, 4850, 4931, 4940, 4859
3840, 4850, 4931, 4940, 4859, 4851, 4932, 4941, 4860
3841, 4861, 4942, 4951, 4870, 4862, 4943, 4952, 4871
3842, 4862, 4943, 4952, 4871, 4863, 4944, 4953, 4872
3843, 4863, 4944, 4953, 4872, 4864, 4945, 4954, 4873
3844, 4864, 4945, 4954, 4873, 4865, 4946, 4955, 4874
3845, 4865, 4946, 4955, 4874, 4866, 4947, 4956, 4875
3846, 4866, 4947, 4956, 4875, 4867, 4948, 4957, 4876
3847, 4867, 4948, 4957, 4876, 4868, 4949, 4958, 4877
3848, 4868, 4949, 4958, 4877, 4869, 4950, 4959, 4878
3849, 4870, 4951, 4960, 4879, 4871, 4952, 4961, 4880
3850, 4871, 4952, 4961, 4880, 4872, 4953, 4962, 4881
3851, 4872, 4953, 4962, 4881, 4873, 4954, 4963, 4882
3852, 4873, 4954, 4963, 4882, 4874, 4955, 4964, 4883
3853, 4874, 4955, 4964, 4883, 4875, 4956, 4965, 4884
3854, 4875, 4956, 4965, 4884, 4876, 4957, 4966, 4885
3855, 4876, 4957, 4966, 4885, 4877, 4958, 4967, 4886
3856, 4877, 4958, 4967, 4886, 4878, 4959, 4968, 4887
3857, 4879, 4960, 4969, 4888, 4880, 4961, 4970, 4889
3858, 4880, 4961, 4970, 4889, 4881, 4962, 4971, 4890
3859, 4881, 4962, 4971, 4890, 4882, 4963, 4972, 4891
3860, 4882, 4963, 4972, 4891, 4883, 4964, 4973, 4892
3861, 4883, 4964, 4973, 4892, 4884, 4965, 4974, 4893
3862, 4884, 4965, 4974, 4893, 4885, 4966, 4975, 4894
3863, 4885, 4966, 4975, 4894, 4886, 4967, 4976, 4895
3864, 4886, 4967, 4976, 4895, 4887, 4968, 4977, 4896
3865, 4888, 4969, 4978, 4897, 4889, 4970, 4979, 4898
3866, 4889, 4970, 4979, 4898, 4890, 4971, 4980, 4899
3867, 4890, 4971, 4980, 4899, 4891, 4972, 4981, 4900
3868, 4891, 4972, 4981, 4900, 4892, 4973, 4982, 4901
3869, 4892, 4973, 4982, 4901, 4893, 4974, 4983, 4902
3870, 4893, 4974, 4983, 4902, 4894, 4975, 4984, 4903
3871, 4894, 4975, 4984, 4903, 4895, 4976, 4985, 4904
3872, 4895, 4976, 4985, 4904, 4896, 4977, 4986, 4905
3873, 4897, 4978, 4987, 4906, 4898, 4979, 4988, 4907
3874, 4898, 4979, 4988, 4907, 4899, 4980, 4989, 4908
3875, 4899, 4980, 4989, 4908, 4900, 4981, 4990, 4909
3876, 4900, 4981, 4990, 4909, 4901, 4982, 4991, 4910
3877, 4901, 4982, 4991, 4910, 4902, 4983, 4992, 4911
3878, 4902, 4983, 4992, 4911, 4903, 4984, 4993, 4912
3879, 4903, 4984, 4993, 4912, 4904, 4985, 4994, 4913
3880, 4904, 4985, 4994, 4913, 4905, 4986, 4995, 4914
3881, 4906, 4987, 4996, 4915, 4907, 4988, 4997, 4916
3882, 4907, 4988, 4997, 4916, 4908, 4989, 4998, 4917
3883, 4908, 4989, 4998, 4917, 4909, 4990, 4999, 4918
3884, 4909, 4990, 4999, 4918, 4910, 4991, 5000, 4919
3885, 4910, 4991, 5000, 4919, 4911, 4992, 5001, 4920
3886, 4911, 4992, 5001, 4920, 4912, 4993, 5002, 4921
3887, 4912, 4993, 5002, 4921, 4913, 4994, 5003, 4922
3888, 4913, 4994, 5003, 4922, 4914, 4995, 5004, 4923
3889, 4915, 4996, 5005, 4924, 4916, 4997, 5006, 4925
3890, 4916, 4997, 5006, 4925, 4917, 4998, 5007, 4926
3891, 4917, 4998, 5007, 4926, 4918, 4999, 5008, 4927
3892, 4918, 4999, 5008, 4927, 4919, 5000, 5009, 4928
3893, 4919, 5000, 5009, 4928, 4920, 5001, 5010, 4929
3894, 4920, 5001, 5010, 4929, 4921, 5002, 5011, 4930
3895, 4921, 5002, 5011, 4930, 4922, 5003, 5012, 4931
3896, 4922, 5003, 5012, 4931, 4923, 5004, 5013, 4932
3897, 4924, 5005, 5014, 4933, 4925, 5006, 5015, 4934
3898, 4925, 5006, 5015, 4934, 4926, 5007, 5016, 4935
3899, 4926, 5007, 5016, 4935, 4927, 5008, 5017, 4936
3900, 4927, 5008, 5017, 4936, 4928, 5009, 5018, 4937
3901, 4928, 5009, 5018, 4937, 4929, 5010, 5019, 4938
3902, 4929, 5010, 5019, 4938, 4930, 5011, 5020, 4939
3903, 4930, 5011, 5020, 4939, 4931, 5012, 5021, 4940
3904, 4931, 5012, 5021, 4940, 4932, 5013, 5022, 4941
3905, 4942, 5023, 5032, 4951, 4943, 5024, 5033, 4952
3906, 4943, 5024, 5033, 4952, 4944, 5025, 5034, 4953
3907, 4944, 5025, 5034, 4953, 4945, 5026, 5035, 4954
3908, 4945, 5026, 5035, 4954, 4946, 5027, 5036, 4955
3909, 4946, 5027, 5036, 4955, 4947, 5028, 5037, 4956
3910, 4947, 5028, 5037, 4956, 4948, 5029, 5038, 4957
3911, 4948, 5029, 5038, 4957, 4949, 5030, 5039, 4958
3912, 4949, 5030, 5039, 4958, 4950, 5031, 5040, 4959
3913, 4951, 5032, 5041, 4960, 4952, 5033, 5042, 4961
3914, 4952, 5033, 5042, 4961, 4953, 5034, 5043, 4962
3915, 4953, 5034, 5043, 4962, 4954, 5035, 5044, 4963
3916, 4954, 5035, 5044, 4963, 4955, 5036, 5045, 4964
3917, 4955, 5036, 5045, 4964, 4956, 5037, 5046, 4965
3918, 4956, 5037, 5046, 4965, 4957, 5038, 5047, 4966
3919, 4957, 5038, 5047, 4966, 4958, 5039, 5048, 4967
3920, 4958, 5039, 5048, 4967, 4959, 5040, 5049, 4968
3921, 4960, 5041, 5050, 4969, 4961, 5042, 5051, 4970
3922, 4961, 5042, 5051, 4970, 4962, 5043, 5052, 4971
3923, 4962, 5043, 5052, 4971, 4963, 5044, 5053, 4972
3924, 4963, 5044, 5053, 4972, 4964, 5045, 5054, 4973
3925, 4964, 5045, 5054, 4973, 4965, 5046, 5055, 4974
3926, 4965, 5046, 5055, 4974, 4966, 5047, 5056, 4975
3927, 4966, 5047, 5056, 4975, 4967, 5048, 5057, 4976
3928, 4967, 5048, 5057, 4976, 4968, 5049, 5058, 4977
3929, 4969, 5050, 5059, 4978, 4970, 5051, 5060, 4979
3930, 4970, 5051, 5060, 4979, 4971, 5052, 5061, 4980
3931, 4971, 5052, 5061, 4980, 4972, 5053, 5062, 4981
3932, 4972, 5053, 5062, 4981, 4973, 5054, 5063, 4982
3933, 4973, 5054, 5063, 4982, 4974, 5055, 5064, 4983
3934, 4974, 5055, 5064, 4983, 4975, 5056, 5065, 4984
3935, 4975, 5056, 5065, 4984, 4976, 5057, 5066, 4985
3936, 4976, 5057, 5066, 4985, 4977, 5058, 5067, 4986
3937, 4978, 5059, 5068, 4987, 4979, 5060, 5069, 4988
3938, 4979, 5060, 5069, 4988, 4980, 5061, 5070, 4989
3939, 4980, 5061, 5070, 4989, 4981, 5062, 5071, 4990
3940, 4981, 5062, 5071, 4990, 4982, 5063, 5072, 4991
3941, 4982, 5063, 5072, 4991, 4983, 5064, 5073, 4992
3942, 4983, 5064, 5073, 4992, 4984, 5065, 5074, 4993
3943, 4984, 5065, 5074, 4993, 4985, 5066, 5075, 4994
3944, 4985, 5066, 5075, 4994, 4986, 5067, 5076, 4995
3945, 4987, 5068, 5077, 4996, 4988, 5069, 5078, 4997
3946, 4988, 5069, 5078, 4997, 4989, 5070, 5079, 4998
3947, 4989, 5070, 5079, 4998, 4990, 5071, 5080, 4999
3948, 4990, 5071, 5080, 4999, 4991, 5072, 5081, 5000
3949, 4991, 5072, 5081, 5000, 4992, 5073, 5082, 5001
3950, 4992, 5073, 5082, 5001, 4993, 5074, 5083, 5002
3951, 4993, 5074, 5083, 5002, 4994, 5075, 5084, 5003
3952, 4994, 5075, 5084, 5003, 4995, 5076, 5085, 5004
3953, 4996, 5077, 5086, 5005, 4997, 5078, 5087, 5006
3954, 4997, 5078, 5087, 5006, 4998, 5079, 5088, 5007
3955, 4998, 5079, 5088, 5007, 4999, 5080, 5089, 5008
3956, 4999, 5080, 5089, 5008, 5000, 5081, 5090, 5009
3957, 5000, 5081, 5090, 5009, 5001, 5082, 5091, 5010
3958, 5001, 5082, 5091, 5010, 5002, 5083, 5092, 5011
3959, 5002, 5083, 5092, 5011, 5003, 5084, 5093, 5012
3960, 5003, 5084, 5093, 5012, 5004, 5085, 5094, 5013
3961, 5005, 5086, 5095, 5014, 5006, 5087, 5096, 5015
3962, 5006, 5087, 5096, 5015, 5007, 5088, 5097, 5016
3963, 5007, 5088, 5097, 5016, 5008, 5089, 5098, 5017
3964, 5008, 5089, 5098, 5017, 5009, 5090, 5099, 5018
3965, 5009, 5090, 5099, 5018, 5010, 5091, 5100, 5019
3966, 5010, 5091, 5100, 5019, 5011, 5092, 5101, 5020
3967, 5011, 5092, 5101, 5020, 5012, 5093, 5102, 5021
3968, 5012, 5093, 5102, 5021, 5013, 5094, 5103, 5022
3969, 5023, 5104, 5113, 5032, 5024, 5105, 5114, 5033
3970, 5024, 5105, 5114, 5033, 5025, 5106, 5115, 5034
3971, 5025, 5106, 5115, 5034, 5026, 5107, 5116, 5035
3972, 5026, 5107, 5116, 5035, 5027, 5108, 5117, 5036
3973, 5027, 5108, 5117, 5036, 5028, 5109, 5118, 5037
3974, 5028, 5109, 5118, 5037, 5029, 5110, 5119, 5038
3975, 5029, 5110, 5119, 5038, 5030, 5111, 5120, 5039
3976, 5030, 5111, 5120, 5039, 5031, 5112, 5121, 5040
3977, 5032, 5113, 5122, 5041, 5033, 5114, 5123, 5042
3978, 5033, 5114, 5123, 5042, 5034, 5115, 5124, 5043
3979, 5034, 5115, 5124, 5043, 5035, 5116, 5125, 5044
3980, 5035, 5116, 5125, 5044, 5036, 5117, 5126, 5045
3981, 5036, 5117, 5126, 5045, 5037, 5118, 5127, 5046
3982, 5037, 5118, 5127, 5046, 5038, 5119, 5128, 5047
3983, 5038, 5119, 5128, 5047, 5039, 5120, 5129, 5048
3984, 5039, 5120, 5129, 5048, 5040, 5121, 5130, 5049
3985, 5041, 5122, 5131, 5050, 5042, 5123, 5132, 5051
3986, 5042, 5123, 5132, 5051, 5043, 5124, 5133, 5052
3987, 5043, 5124, 5133, 5052, 5044, 5125, 5134, 5053
3988, 5044, 5125, 5134, 5053, 5045, 5126, 5135, 5054
3989, 5045, 5126, 5135, 5054, 5046, 5127, 5136, 5055
3990, 5046, 5127, 5136, 5055, 5047, 5128, 5137, 5056
3991, 5047, 5128, 5137, 5056, 5048, 5129, 5138, 5057
3992, 5048, 5129, 5138, 5057, 5049, 5130, 5139, 5058
3993, 5050, 5131, 5140, 5059, 5051, 5132, 5141, 5060
3994, 5051, 5132, 5141, 5060, 5052, 5133, 5142, 5061
3995, 5052, 5133, 5142, 5061, 5053, 5134, 5143, 5062
3996, 5053, 5134, 5143, 5062, 5054, 5135, 5144, 5063
3997, 5054, 5135, 5144, 5063, 5055, 5136, 5145, 5064
3998, 5055, 5136, 5145, 5064, 5056, 5137, 5146, 5065
3999, 5056, 5137, 5146, 5065, 5057, 5138, 5147, 5066
4000, 5057, 5138, 5147, 5066, 5058, 5139, 5148, 5067
4001, 5059, 5140, 5149, 5068, 5060, 5141, 5150, 5069
4002, 5060, 5141, 5150, 5069, 5061, 5142, 5151, 5070
4003, 5061, 5142, 5151, 5070, 5062, 5143, 5152, 5071
4004, 5062, 5143, 5152, 5071, 5063, 5144, 5153, 5072
4005, 5063, 5144, 5153, 5072, 5064, 5145, 5154, 5073
4006, 5064, 5145, 5154, 5073, 5065, 5146, 5155, 5074
4007, 5065, 5146, 5155, 5074, 5066, 5147, 5156, 5075
4008, 5066, 5147, 5156, 5075, 5067, 5148, 5157, 5076
4009, 5068, 5149, 5158, 5077, 5069, 5150, 5159, 5078
4010, 5069, 5150, 5159, 5078, 5070, 5151, 5160, 5079
4011, 5070, 5151, 5160, 5079, 5071, 5152, 5161, 5080
4012, 5071, 5152, 5161, 5080, 5072, 5153, 5162, 5081
4013, 5072, 5153, 5162, 5081, 5073, 5154, 5163, 5082
4014, 5073, 5154, 5163, 5082, 5074, 5155, 5164, 5083
4015, 5074, 5155, 5164, 5083, 5075, 5156, 5165, 5084
4016, 5075, 5156, 5165, 5084, 5076, 5157, 5166, 5085
4017, 5077, 5158, 5167, 5086, 5078, 5159, 5168, 5087
4018, 5078, 5159, 5168, 5087, 5079, 5160, 5169, 5088
4019, 5079, 5160, 5169, 5088, 5080, 5161, 5170, 5089
4020, 5080, 5161, 5170, 5089, 5081, 5162, 5171, 5090
4021, 5081, 5162, 5171, 5090, 5082, 5163, 5172, 5091
4022, 5082, 5163, 5172, 5091, 5083, 5164, 5173, 5092
4023, 5083, 5164, 5173, 5092, 5084, 5165, 5174, 5093
4024, 5084, 5165, 5174, 5093, 5085, 5166, 5175, 5094
4025, 5086, 5167, 5176, 5095, 5087, 5168, 5177, 5096
4026, 5087, 5168, 5177, 5096, 5088, 5169, 5178, 5097
4027, 5088, 5169, 5178, 5097, 5089, 5170, 5179, 5098
4028, 5089, 5170, 5179, 5098, 5090, 5171, 5180, 5099
4029, 5090, 5171, 5180, 5099, 5091, 5172, 5181, 5100
4030, 5091, 5172, 5181, 5100, 5092, 5173, 5182, 5101
4031, 5092, 5173, 5182, 5101, 5093, 5174, 5183, 5102
4032, 5093, 5174, 5183, 5102, 5094, 5175, 5184, 5103
4033, 5104, 5185, 5194, 5113, 5105, 5186, 5195, 5114
4034, 5105, 5186, 5195, 5114, 5106, 5187, 5196, 5115
4035, 5106, 5187, 5196, 5115, 5107, 5188, 5197, 5116
4036, 5107, 5188, 5197, 5116, 5108, 5189, 5198, 5117
4037, 5108, 5189, 5198, 5117, 5109, 5190, 5199, 5118
4038, 5109, 5190, 5199, 5118, 5110, 5191, 5200, 5119
4039, 5110, 5191, 5200, 5119, 5111, 5192, 5201, 5120
4040, 5111, 5192, 5201, 5120, 5112, 5193, 5202, 5121
4041, 5113, 5194, 5203, 5122, 5114, 5195, 5204, 5123
4042, 5114, 5195, 5204, 5123, 5115, 5196, 5205, 5124
4043, 5115, 5196, 5205, 5124, 5116, 5197, 5206, 5125
4044, 5116, 5197, 5206, 5125, 5117, 5198, 5207, 5126
4045, 5117, 5198, 5207, 5126, 5118, 5199, 5208, 5127
4046, 5118, 5199, 5208, 5127, 5119, 5200, 5209, 5128
4047, 5119, 5200, 5209, 5128, 5120, 5201, 5210, 5129
4048, 5120, 5201, 5210, 5129, 5121, 5202, 5211, 5130
4049, 5122, 5203, 5212, 5131, 5123, 5204, 5213, 5132
4050, 5123, 5204, 5213, 5132, 5124, 5205, 5214, 5133
4051, 5124, 5205, 5214, 5133, 5125, 5206, 5215, 5134
4052, 5125, 5206, 5215, 5134, 5126, 5207, 5216, 5135
4053, 5126, 5207, 5216, 5135, 5127, 5208, 5217, 5136
4054, 5127, 5208, 5217, 5136, 5128, 5209, 5218, 5137
4055, 5128, 5209, 5218, 5137, 5129, 5210, 5219, 5138
4056, 5129, 5210, 5219, 5138, 5130, 5211, 5220, 5139
4057, 5131, 5212, 5221, 5140, 5132, 5213, 5222, 5141
4058, 5132, 5213, 5222, 5141, 5133, 5214, 5223, 5142
4059, 5133, 5214, 5223, 5142, 5134, 5215, 5224, 5143
4060, 5134, 5215, 5224, 5143, 5135, 5216, 5225, 5144
4061, 5135, 5216, 5225, 5144, 5136, 5217, 5226, 5145
4062, 5136, 5217, 5226, 5145, 5137, 5218, 5227, 5146
4063, 5137, 5218, 5227, 5146, 5138, 5219, 5228, 5147
4064, 5138, 5219, 5228, 5147, 5139, 5220, 5229, 5148
4065, 5140, 5221, 5230, 5149, 5141, 5222, 5231, 5150
4066, 5141, 5222, 5231, 5150, 5142, 5223, 5232, 5151
4067, 5142, 5223, 5232, 5151, 5143, 5224, 5233, 5152
4068, 5143, 5224, 5233, 5152, 5144, 5225, 5234, 5153
4069, 5144, 5225, 5234, 5153, 5145, 5226, 5235, 5154
4070, 5145, 5226, 5235, 5154, 5146, 5227, 5236, 5155
4071, 5146, 5227, 5236, 5155, 5147, 5228, 5237, 5156
4072, 5147, 5228, 5237, 5156, 5148, 5229, 5238, 5157
4073, 5149, 5230, 5239, 5158, 5150, 5231, 5240, 5159
4074, 5150, 5231, 5240, 5159, 5151, 5232, 5241, 5160
4075, 5151, 5232, 5241, 5160, 5152, 5233, 5242, 5161
4076, 5152, 5233, 5242, 5161, 5153, 5234, 5243, 5162
4077, 5153, 5234, 5243, 5162, 5154, 5235, 5244, 5163
4078, 5154, 5235, 5244, 5163, 5155, 5236, 5245, 5164
4079, 5155, 5236, 5245, 5164, 5156, 5237, 5246, 5165
4080, 5156, 5237, 5246, 5165, 5157, 5238, 5247, 5166
4081, 5158, 5239, 5248, 5167, 5159, 5240, 5249, 5168
4082, 5159, 5240, 5249, 5168, 5160, 5241, 5250, 5169
4083, 5160, 5241, 5250, 5169, 5161, 5242, 5251, 5170
4084, 5161, 5242, 5251, 5170, 5162, 5243, 5252, 5171
4085, 5162, 5243, 5252, 5171, 5163, 5244, 5253, 5172
4086, 5163, 5244, 5253, 5172, 5164, 5245, 5254, 5173
4087, 5164, 5245, 5254, 5173, 5165, 5246, 5255, 5174
4088, 5165, 5246, 5255, 5174, 5166, 5247, 5256, 5175
4089, 5167, 5248, 5257, 5176, 5168, 5249, 5258, 5177
4090, 5168, 5249, 5258, 5177, 5169, 5250, 5259, 5178
4091, 5169, 5250, 5259, 5178, 5170, 5251, 5260, 5179
4092, 5170, 5251, 5260, 5179, 5171, 5252, 5261, 5180
4093, 5171, 5252, 5261, 5180, 5172, 5253, 5262, 5181
4094, 5172, 5253, 5262, 5181, 5173, 5254, 5263, 5182
4095, 5173, 5254, 5263, 5182, 5174, 5255, 5264, 5183
4096, 5174, 5255, 5264, 5183, 5175, 5256, 5265, 5184
4097, 5185, 5266, 5275, 5194, 5186, 5267, 5276, 5195
4098, 5186, 5267, 5276, 5195, 5187, 5268, 5277, 5196
4099, 5187, 5268, 5277, 5196, 5188, 5269, 5278, 5197
4100, 5188, 5269, 5278, 5197, 5189, 5270, 5279, 5198
4101, 5189, 5270, 5279, 5198, 5190, 5271, 5280, 5199
4102, 5190, 5271, 5280, 5199, 5191, 5272, 5281, 5200
4103, 5191, 5272, 5281, 5200, 5192, 5273, 5282, 5201
4104, 5192, 5273, 5282, 5201, 5193, 5274, 5283, 5202
4105, 5194, 5275, 5284, 5203, 5195, 5276, 5285, 5204
4106, 5195, 5276, 5285, 5204, 5196, 5277, 5286, 5205
4107, 5196, 5277, 5286, 5205, 5197, 5278, 5287, 5206
4108, 5197, 5278, 5287, 5206, 5198, 5279, 5288, 5207
4109, 5198, 5279, 5288, 5207, 5199, 5280, 5289, 5208
4110, 5199, 5280, 5289, 5208, 5200, 5281, 5290, 5209
4111, 5200, 5281, 5290, 5209, 5201, 5282, 5291, 5210
4112, 5201, 5282, 5291, 5210, 5202, 5283, 5292, 5211
4113, 5203, 5284, 5293, 5212, 5204, 5285, 5294, 5213
4114, 5204, 5285, 5294, 5213, 5205, 5286, 5295, 5214
4115, 5205, 5286, 5295, 5214, 5206, 5287, 5296, 5215
4116, 5206, 5287, 5296, 5215, 5207, 5288, 5297, 5216
4117, 5207, 5288, 5297, 5216, 5208, 5289, 5298, 5217
4118, 5208, 5289, 5298, 5217, 5209, 5290, 5299, 5218
4119, 5209, 5290, 5299, 5218, 5210, 5291, 5300, 5219
4120, 5210, 5291, 5300, 5219, 5211, 5292, 5301, 5220
4121, 5212, 5293, 5302, 5221, 5213, 5294, 5303, 5222
4122, 5213, 5294, 5303, 5222, 5214, 5295, 5304, 5223
4123, 5214, 5295, 5304, 5223, 5215, 5296, 5305, 5224
4124, 5215, 5296, 5305, 5224, 5216, 5297, 5306, 5225
4125, 5216, 5297, 5306, 5225, 5217, 5298, 5307, 5226
4126, 5217, 5298, 5307, 5226, 5218, 5299, 5308, 5227
4127, 5218, 5299, 5308, 5227, 5219, 5300, 5309, 5228
4128, 5219, 5300, 5309, 5228, 5220, 5301, 5310, 5229
4129, 5221, 5302, 5311, 5230, 5222, 5303, 5312, 5231
4130, 5222, 5303, 5312, 5231, 5223, 5304, 5313, 5232
4131, 5223, 5304, 5313, 5232, 5224, 5305, 5314, 5233
4132, 5224, 5305, 5314, 5233, 5225, 5306, 5315, 5234
4133, 5225, 5306, 5315, 5234, 5226, 5307, 5316, 5235
4134, 5226, 5307, 5316, 5235, 5227, 5308, 5317, 5236
4135, 5227, 5308, 5317, 5236, 5228, 5309, 5318, 5237
4136, 5228, 5309, 5318, 5237, 5229, 5310, 5319, 5238
4137, 5230, 5311, 5320, 5239, 5231, 5312, 5321, 5240
4138, 5231, 5312, 5321, 5240, 5232, 5313, 5322, 5241
4139, 5232, 5313, 5322, 5241, 5233, 5314, 5323, 5242
4140, 5233, 5314, 5323, 5242, 5234, 5315, 5324, 5243
4141, 5234, 5315, 5324, 5243, 5235, 5316, 5325, 5244
4142, 5235, 5316, 5325, 5244, 5236, 5317, 5326, 5245
4143, 5236, 5317, 5326, 5245, 5237, 5318, 5327, 5246
4144, 5237, 5318, 5327, 5246, 5238, 5319, 5328, 5247
4145, 5239, 5320, 5329, 5248, 5240, 5321, 5330, 5249
4146, 5240, 5321, 5330, 5249, 5241, 5322, 5331, 5250
4147, 5241, 5322, 5331, 5250, 5242, 5323, 5332, 5251
4148, 5242, 5323, 5332, 5251, 5243, 5324, 5333, 5252
4149, 5243, 5324, 5333, 5252, 5244, 5325, 5334, 5253
4150, 5244, 5325, 5334, 5253, 5245, 5326, 5335, 5254
4151, 5245, 5326, 5335, 5254, 5246, 5327, 5336, 5255
4152, 5246, 5327, 5336, 5255, 5247, 5328, 5337, 5256
4153, 5248, 5329, 5338, 5257, 5249, 5330, 5339, 5258
4154, 5249, 5330, 5339, 5258, 5250, 5331, 5340, 5259
4155, 5250, 5331, 5340, 5259, 5251, 5332, 5341, 5260
4156, 5251, 5332, 5341, 5260, 5252, 5333, 5342, 5261
4157, 5252, 5333, 5342, 5261, 5253, 5334, 5343, 5262
4158, 5253, 5334, 5343, 5262, 5254, 5335, 5344, 5263
4159, 5254, 5335, 5344, 5263, 5255, 5336, 5345, 5264
4160, 5255, 5336, 5345, 5264, 5256, 5337, 5346, 5265
4161, 5266, 5347, 5356, 5275, 5267, 5348, 5357, 5276
4162, 5267, 5348, 5357, 5276, 5268, 5349, 5358, 5277
4163, 5268, 5349, 5358, 5277, 5269, 5350, 5359, 5278
4164, 5269, 5350, 5359, 5278, 5270, 5351, 5360, 5279
4165, 5270, 5351, 5360, 5279, 5271, 5352, 5361, 5280
4166, 5271, 5352, 5361, 5280, 5272, 5353, 5362, 5281
4167, 5272, 5353, 5362, 5281, 5273, 5354, 5363, 5282
4168, 5273, 5354, 5363, 5282, 5274, 5355, 5364, 5283
4169, 5275, 5356, 5365, 5284, 5276, 5357, 5366, 5285
4170, 5276, 5357, 5366, 5285, 5277, 5358, 5367, 5286
4171, 5277, 5358, 5367, 5286, 5278, 5359, 5368, 5287
4172, 5278, 5359, 5368, 5287, 5279, 5360, 5369, 5288
4173, 5279, 5360, 5369, 5288, 5280, 5361, 5370, 5289
4174, 5280, 5361, 5370, 5289, 5281, 5362, 5371, 5290
4175, 5281, 5362, 5371, 5290, 5282, 5363, 5372, 5291
4176, 5282, 5363, 5372, 5291, 5283, 5364, 5373, 5292
4177, 5284, 5365, 5374, 5293, 5285, 5366, 5375, 5294
4178, 5285, 5366, 5375, 5294, 5286, 5367, 5376, 5295
4179, 5286, 5367, 5376, 5295, 5287, 5368, 5377, 5296
4180, 5287, 5368, 5377, 5296, 5288, 5369, 5378, 5297
4181, 5288, 5369, 5378, 5297, 5289, 5370, 5379, 5298
4182, 5289, 5370, 5379, 5298, 5290, 5371, 5380, 5299
4183, 5290, 5371, 5380, 5299, 5291, 5372, 5381, 5300
4184, 5291, 5372, 5381, 5300, 5292, 5373, 5382, 5301
4185, 5293, 5374, 5383, 5302, 5294, 5375, 5384, 5303
4186, 5294, 5375, 5384, 5303, 5295, 5376, 5385, 5304
4187, 5295, 5376, 5385, 5304, 5296, 5377, 5386, 5305
4188, 5296, 5377, 5386, 5305, 5297, 5378, 5387, 5306
4189, 5297, 5378, 5387, 5306, 5298, 5379, 5388, 5307
4190, 5298, 5379, 5388, 5307, 5299, 5380, 5389, 5308
4191, 5299, 5380, 5389, 5308, 5300, 5381, 5390, 5309
4192, 5300, 5381, 5390, 5309, 5301, 5382, 5391, 5310
4193, 5302, 5383, 5392, 5311, 5303, 5384, 5393, 5312
4194, 5303, 5384, 5393, 5312, 5304, 5385, 5394, 5313
4195, 5304, 5385, 5394, 5313, 5305, 5386, 5395, 5314
4196, 5305, 5386, 5395, 5314, 5306, 5387, 5396, 5315
4197, 5306, 5387, 5396, 5315, 5307, 5388, 5397, 5316
4198, 5307, 5388, 5397, 5316, 5308, 5389, 5398, 5317
4199, 5308, 5389, 5398, 5317, 5309, 5390, 5399, 5318
4200, 5309, 5390, 5399, 5318, 5310, 5391, 5400, 5319
4201, 5311, 5392, 5401, 5320, 5312, 5393, 5402, 5321
4202, 5312, 5393, 5402, 5321, 5313, 5394, 5403, 5322
4203, 5313, 5394, 5403, 5322, 5314, 5395, 5404, 5323
4204, 5314, 5395, 5404, 5323, 5315, 5396, 5405, 5324
4205, 5315, 5396, 5405, 5324, 5316, 5397, 5406, 5325
4206, 5316, 5397, 5406, 5325, 5317, 5398, 5407, 5326
4207, 5317, 5398, 5407, 5326, 5318, 5399, 5408, 5327
4208, 5318, 5399, 5408, 5327, 5319, 5400, 5409, 5328
4209, 5320, 5401, 5410, 5329, 5321, 5402, 5411, 5330
4210, 5321, 5402, 5411, 5330, 5322, 5403, 5412, 5331
4211, 5322, 5403, 5412, 5331, 5323, 5404, 5413, 5332
4212, 5323, 5404, 5413, 5332, 5324, 5405, 5414, 5333
4213, 5324, 5405, 5414, 5333, 5325, 5406, 5415, 5334
4214, 5325, 5406, 5415, 5334, 5326, 5407, 5416, 5335
4215, 5326, 5407, 5416, 5335, 5327, 5408, 5417, 5336
4216, 5327, 5408, 5417, 5336, 5328, 5409, 5418, 5337
4217, 5329, 5410, 5419, 5338, 5330, 5411, 5420, 5339
4218, 5330, 5411, 5420, 5339, 5331, 5412, 5421, 5340
4219, 5331, 5412, 5421, 5340, 5332, 5413, 5422, 5341
4220, 5332, 5413, 5422, 5341, 5333, 5414, 5423, 5342
4221, 5333, 5414, 5423, 5342, 5334, 5415, 5424, 5343
4222, 5334, 5415, 5424, 5343, 5335, 5416, 5425, 5344
4223, 5335, 5416, 5425, 5344, 5336, 5417, 5426, 5345
4224, 5336, 5417, 5426, 5345, 5337, 5418, 5427, 5346
4225, 5347, 5428, 5437, 5356, 5348, 5429, 5438, 5357
4226, 5348, 5429, 5438, 5357, 5349, 5430, 5439, 5358
4227, 5349, 5430, 5439, 5358, 5350, 5431, 5440, 5359
4228, 5350, 5431, 5440, 5359, 5351, 5432, 5441, 5360
4229, 5351, 5432, 5441, 5360, 5352, 5433, 5442, 5361
4230, 5352, 5433, 5442, 5361, 5353, 5434, 5443, 5362
4231, 5353, 5434, 5443, 5362, 5354, 5435, 5444, 5363
4232, 5354, 5435, 5444, 5363, 5355, 5436, 5445, 5364
4233, 5356, 5437, 5446, 5365, 5357, 5438, 5447, 5366
4234, 5357, 5438, 5447, 5366, 5358, 5439, 5448, 5367
4235, 5358, 5439, 5448, 5367, 5359, 5440, 5449, 5368
4236, 5359, 5440, 5449, 5368, 5360, 5441, 5450, 5369
4237, 5360, 5441, 5450, 5369, 5361, 5442, 5451, 5370
4238, 5361, 5442, 5451, 5370, 5362, 5443, 5452, 5371
4239, 5362, 5443, 5452, 5371, 5363, 5444, 5453, 5372
4240, 5363, 5444, 5453, 5372, 5364, 5445, 5454, 5373
4241, 5365, 5446, 5455, 5374, 5366, 5447, 5456, 5375
4242, 5366, 5447, 5456, 5375, 5367, 5448, 5457, 5376
4243, 5367, 5448, 5457, 5376, 5368, 5449, 5458, 5377
4244, 5368, 5449, 5458, 5377, 5369, 5450, 5459, 5378
4245, 5369, 5450, 5459, 5378, 5370, 5451, 5460, 5379
4246, 5370, 5451, 5460, 5379, 5371, 5452, 5461, 5380
4247, 5371, 5452, 5461, 5380, 5372, 5453, 5462, 5381
4248, 5372, 5453, 5462, 5381, 5373, 5454, 5463, 5382
4249, 5374, 5455, 5464, 5383, 5375, 5456, 5465, 5384
4250, 5375, 5456, 5465, 5384, 5376, 5457, 5466, 5385
4251, 5376, 5457, 5466, 5385, 5377, 5458, 5467, 5386
4252, 5377, 5458, 5467, 5386, 5378, 5459, 5468, 5387
4253, 5378, 5459, 5468, 5387, 5379, 5460, 5469, 5388
4254, 5379, 5460, 5469, 5388, 5380, 5461, 5470, 5389
4255, 5380, 5461, 5470, 5389, 5381, 5462, 5471, 5390
4256, 5381, 5462, 5471, 5390, 5382, 5463, 5472, 5391
4257, 5383, 5464, 5473, 5392, 5384, 5465, 5474, 5393
4258, 5384, 5465, 5474, 5393, 5385, 5466, 5475, 5394
4259, 5385, 5466, 5475, 5394, 5386, 5467, 5476, 5395
4260, 5386, 5467, 5476, 5395, 5387, 5468, 5477, 5396
4261, 5387, 5468, 5477, 5396, 5388, 5469, 5478, 5397
4262, 5388, 5469, 5478, 5397, 5389, 5470, 5479, 5398
4263, 5389, 5470, 5479, 5398, 5390, 5471, 5480, 5399
4264, 5390, 5471, 5480, 5399, 5391, 5472, 5481, 5400
4265, 5392, 5473, 5482, 5401, 5393, 5474, 5483, 5402
4266, 5393, 5474, 5483, 5402, 5394, 5475, 5484, 5403
4267, 5394, 5475, 5484, 5403, 5395, 5476, 5485, 5404
4268, 5395, 5476, 5485, 5404, 5396, 5477, 5486, 5405
4269, 5396, 5477, 5486, 5405, 5397, 5478, 5487, 5406
4270, 5397, 5478, 5487, 5406, 5398, 5479, 5488, 5407
4271, 5398, 5479, 5488, 5407, 5399, 5480, 5489, 5408
4272, 5399, 5480, 5489, 5408, 5400, 5481, 5490, 5409
4273, 5401, 5482, 5491, 5410, 5402, 5483, 5492, 5411
4274, 5402, 5483, 5492, 5411, 5403, 5484, 5493, 5412
4275, 5403, 5484, 5493, 5412, 5404, 5485, 5494, 5413
4276, 5404, 5485, 5494, 5413, 5405, 5486, 5495, 5414
4277, 5405, 5486, 5495, 5414, 5406, 5487, 5496, 5415
4278, 5406, 5487, 5496, 5415, 5407, 5488, 5497, 5416
4279, 5407, 5488, 5497, 5416, 5408, 5489, 5498, 5417
4280, 5408, 5489, 5498, 5417, 5409, 5490, 5499, 5418
4281, 5410, 5491, 5500, 5419, 5411, 5492, 5501, 5420
4282, 5411, 5492, 5501, 5420, 5412, 5493, 5502, 5421
4283, 5412, 5493, 5502, 5421, 5413, 5494, 5503, 5422
4284, 5413, 5494, 5503, 5422, 5414, 5495, 5504, 5423
4285, 5414, 5495, 5504, 5423, 5415, 5496, 5505, 5424
4286, 5415, 5496, 5505, 5424, 5416, 5497, 5506, 5425
4287, 5416, 5497, 5506, 5425, 5417, 5498, 5507, 5426
4288, 5417, 5498, 5507, 5426, 5418, 5499, 5508, 5427
4289, 5428, 5509, 5518, 5437, 5429, 5510, 5519, 5438
4290, 5429, 5510, 5519, 5438, 5430, 5511, 5520, 5439
4291, 5430, 5511, 5520, 5439, 5431, 5512, 5521, 5440
4292, 5431, 5512, 5521, 5440, 5432, 5513, 5522, 5441
4293, 5432, 5513, 5522, 5441, 5433, 5514, 5523, 5442
4294, 5433, 5514, 5523, 5442, 5434, 5515, 5524, 5443
4295, 5434, 5515, 5524, 5443, 5435, 5516, 5525, 5444
4296, 5435, 5516, 5525, 5444, 5436, 5517, 5526, 5445
4297, 5437, 5518, 5527, 5446, 5438, 5519, 5528, 5447
4298, 5438, 5519, 5528, 5447, 5439, 5520, 5529, 5448
4299, 5439, 5520, 5529, 5448, 5440, 5521, 5530, 5449
4300, 5440, 5521, 5530, 5449, 5441, 5522, 5531, 5450
4301, 5441, 5522, 5531, 5450, 5442, 5523, 5532, 5451
4302, 5442, 5523, 5532, 5451, 5443, 5524, 5533, 5452
4303, 5443, 5524, 5533, 5452, 5444, 5525, 5534, 5453
4304, 5444, 5525, 5534, 5453, 5445, 5526, 5535, 5454
4305, 5446, 5527, 5536, 5455, 5447, 5528, 5537, 5456
4306, 5447, 5528, 5537, 5456, 5448, 5529, 5538, 5457
4307, 5448, 5529, 5538, 5457, 5449, 5530, 5539, 5458
4308, 5449, 5530, 5539, 5458, 5450, 5531, 5540, 5459
4309, 5450, 5531, 5540, 5459, 5451, 5532, 5541, 5460
4310, 5451, 5532, 5541, 5460, 5452, 5533, 5542, 5461
4311, 5452, 5533, 5542, 5461, 5453, 5534, 5543, 5462
4312, 5453, 5534, 5543, 5462, 5454, 5535, 5544, 5463
4313, 5455, 5536, 5545, 5464, 5456, 5537, 5546, 5465
4314, 5456, 5537, 5546, 5465, 5457, 5538, 5547, 5466
4315, 5457, 5538, 5547, 5466, 5458, 5539, 5548, 5467
4316, 5458, 5539, 5548, 5467, 5459, 5540, 5549, 5468
4317, 5459, 5540, 5549, 5468, 5460, 5541, 5550, 5469
4318, 5460, 5541, 5550, 5469, 5461, 5542, 5551, 5470
4319, 5461, 5542, 5551, 5470, 5462, 5543, 5552, 5471
4320, 5462, 5543, 5552, 5471, 5463, 5544, 5553, 5472
4321, 5464, 5545, 5554, 5473, 5465, 5546, 5555, 5474
4322, 5465, 5546, 5555, 5474, 5466, 5547, 5556, 5475
4323, 5466, 5547, 5556, 5475, 5467, 5548, 5557, 5476
4324, 5467, 5548, 5557, 5476, 5468, 5549, 5558, 5477
4325, 5468, 5549, 5558, 5477, 5469, 5550, 5559, 5478
4326, 5469, 5550, 5559, 5478, 5470, 5551, 5560, 5479
4327, 5470, 5551, 5560, 5479, 5471, 5552, 5561, 5480
4328, 5471, 5552, 5561, 5480, 5472, 5553, 5562, 5481
4329, 5473, 5554, 5563, 5482, 5474, 5555, 5564, 5483
4330, 5474, 5555, 5564, 5483, 5475, 5556, 5565, 5484
4331, 5475, 5556, 5565, 5484, 5476, 5557, 5566, 5485
4332, 5476, 5557, 5566, 5485, 5477, 5558, 5567, 5486
4333, 5477, 5558, 5567, 5486, 5478, 5559, 5568, 5487
4334, 5478, 5559, 5568, 5487, 5479, 5560, 5569, 5488
4335, 5479, 5560, 5569, 5488, 5480, 5561, 5570, 5489
4336, 5480, 5561, 5570, 5489, 5481, 5562, 5571, 5490
4337, 5482, 5563, 5572, 5491, 5483, 5564, 5573, 5492
4338, 5483, 5564, 5573, 5492, 5484, 5565, 5574, 5493
4339, 5484, 5565, 5574, 5493, 5485, 5566, 5575, 5494
4340, 5485, 5566, 5575, 5494, 5486, 5567, 5576, 5495
4341, 5486, 5567, 5576, 5495, 5487, 5568, 5577, 5496
4342, 5487, 5568, 5577, 5496, 5488, 5569, 5578, 5497
4343, 5488, 5569, 5578, 5497, 5489, 5570, 5579, 5498
4344, 5489, 5570, 5579, 5498, 5490, 5571, 5580, 5499
4345, 5491, 5572, 5581, 5500, 5492, 5573, 5582, 5501
4346, 5492, 5573, 5582, 5501, 5493, 5574, 5583, 5502
4347, 5493, 5574, 5583, 5502, 5494, 5575, 5584, 5503
4348, 5494, 5575, 5584, 5503, 5495, 5576, 5585, 5504
4349, 5495, 5576, 5585, 5504, 5496, 5577, 5586, 5505
4350, 5496, 5577, 5586, 5505, 5497, 5578, 5587, 5506
4351, 5497, 5578, 5587, 5506, 5498, 5579, 5588, 5507
4352, 5498, 5579, 5588, 5507, 5499, 5580, 5589, 5508
4353, 5509, 5590, 5599, 5518, 5510, 5591, 5600, 5519
4354, 5510, 5591, 5600, 5519, 5511, 5592, 5601, 5520
4355, 5511, 5592, 5601, 5520, 5512, 5593, 5602, 5521
4356, 5512, 5593, 5602, 5521, 5513, 5594, 5603, 5522
4357, 5513, 5594, 5603, 5522, 5514, 5595, 5604, 5523
4358, 5514, 5595, 5604, 5523, 5515, 5596, 5605, 5524
4359, 5515, 5596, 5605, 5524, 5516, 5597, 5606, 5525
4360, 5516, 5597, 5606, 5525, 5517, 5598, 5607, 5526
4361, 5518, 5599, 5608, 5527, 5519, 5600, 5609, 5528
4362, 5519, 5600, 5609, 5528, 5520, 5601, 5610, 5529
4363, 5520, 5601, 5610, 5529, 5521, 5602, 5611, 5530
4364, 5521, 5602, 5611, 5530, 5522, 5603, 5612, 5531
4365, 5522, 5603, 5612, 5531, 5523, 5604, 5613, 5532
4366, 5523, 5604, 5613, 5532, 5524, 5605, 5614, 5533
4367, 5524, 5605, 5614, 5533, 5525, 5606, 5615, 5534
4368, 5525, 5606, 5615, 5534, 5526, 5607, 5616, 5535
4369, 5527, 5608, 5617, 5536, 5528, 5609, 5618, 5537
4370, 5528, 5609, 5618, 5537, 5529, 5610, 5619, 5538
4371, 5529, 5610, 5619, 5538, 5530, 5611, 5620, 5539
4372, 5530, 5611, 5620, 5539, 5531, 5612, 5621, 5540
4373, 5531, 5612, 5621, 5540, 5532, 5613, 5622, 5541
4374, 5532, 5613, 5622, 5541, 5533, 5614, 5623, 5542
4375, 5533, 5614, 5623, 5542, 5534, 5615, 5624, 5543
4376, 5534, 5615, 5624, 5543, 5535, 5616, 5625, 5544
4377, 5536, 5617, 5626, 5545, 5537, 5618, 5627, 5546
4378, 5537, 5618, 5627, 5546, 5538, 5619, 5628, 5547
4379, 5538, 5619, 5628, 5547, 5539, 5620, 5629, 5548
4380, 5539, 5620, 5629, 5548, 5540, 5621, 5630, 5549
4381, 5540, 5621, 5630, 5549, 5541, 5622, 5631, 5550
4382, 5541, 5622, 5631, 5550, 5542, 5623, 5632, 5551
4383, 5542, 5623, 5632, 5551, 5543, 5624, 5633, 5552
4384, 5543, 5624, 5633, 5552, 5544, 5625, 5634, 5553
4385, 5545, 5626, 5635, 5554, 5546, 5627, 5636, 5555
4386, 5546, 5627, 5636, 5555, 5547, 5628, 5637, 5556
4387, 5547, 5628, 5637, 5556, 5548, 5629, 5638, 5557
4388, 5548, 5629, 5638, 5557, 5549, 5630, 5639, 5558
4389, 5549, 5630, 5639, 5558, 5550, 5631, 5640, 5559
4390, 5550, 5631, 5640, 5559, 5551, 5632, 5641, 5560
4391, 5551, 5632, 5641, 5560, 5552, 5633, 5642, 5561
4392, 5552, 5633, 5642, 5561, 5553, 5634, 5643, 5562
4393, 5554, 5635, 5644, 5563, 5555, 5636, 5645, 5564
4394, 5555, 5636, 5645, 5564, 5556, 5637, 5646, 5565
4395, 5556, 5637, 5646, 5565, 5557, 5638, 5647, 5566
4396, 5557, 5638, 5647, 5566, 5558, 5639, 5648, 5567
4397, 5558, 5639, 5648, 5567, 5559, 5640, 5649, 5568
4398, 5559, 5640, 5649, 5568, 5560, 5641, 5650, 5569
4399, 5560, 5641, 5650, 5569, 5561, 5642, 5651, 5570
4400, 5561, 5642, 5651, 5570, 5562, 5643, 5652, 5571
4401, 5563, 5644, 5653, 5572, 5564, 5645, 5654, 5573
4402, 5564, 5645, 5654, 5573, 5565, 5646, 5655, 5574
4403, 5565, 5646, 5655, 5574, 5566, 5647, 5656, 5575
4404, 5566, 5647, 5656, 5575, 5567, 5648, 5657, 5576
4405, 5567, 5648, 5657, 5576, 5568, 5649, 5658, 5577
4406, 5568, 5649, 5658, 5577, 5569, 5650, 5659, 5578
4407, 5569, 5650, 5659, 5578, 5570, 5651, 5660, 5579
4408, 5570, 5651, 5660, 5579, 5571, 5652, 5661, 5580
4409, 5572, 5653, 5662, 5581, 5573, 5654, 5663, 5582
4410, 5573, 5654, 5663, 5582, 5574, 5655, 5664, 5583
4411, 5574, 5655, 5664, 5583, 5575, 5656, 5665, 5584
4412, 5575, 5656, 5665, 5584, 5576, 5657, 5666, 5585
4413, 5576, 5657, 5666, 5585, 5577, 5658, 5667, 5586
4414, 5577, 5658, 5667, 5586, 5578, 5659, 5668, 5587
4415, 5578, 5659, 5668, 5587, 5579, 5660, 5669, 5588
4416, 5579, 5660, 5669, 5588, 5580, 5661, 5670, 5589
4417, 5590, 5671, 5680, 5599, 5591, 5672, 5681, 5600
4418, 5591, 5672, 5681, 5600, 5592, 5673, 5682, 5601
4419, 5592, 5673, 5682, 5601, 5593, 5674, 5683, 5602
4420, 5593, 5674, 5683, 5602, 5594, 5675, 5684, 5603
4421, 5594, 5675, 5684, 5603, 5595, 5676, 5685, 5604
4422, 5595, 5676, 5685, 5604, 5596, 5677, 5686, 5605
4423, 5596, 5677, 5686, 5605, 5597, 5678, 5687, 5606
4424, 5597, 5678, 5687, 5606, 5598, 5679, 5688, 5607
4425, 5599, 5680, 5689, 5608, 5600, 5681, 5690, 5609
4426, 5600, 5681, 5690, 5609, 5601, 5682, 5691, 5610
4427, 5601, 5682, 5691, 5610, 5602, 5683, 5692, 5611
4428, 5602, 5683, 5692, 5611, 5603, 5684, 5693, 5612
4429, 5603, 5684, 5693, 5612, 5604, 5685, 5694, 5613
4430, 5604, 5685, 5694, 5613, 5605, 5686, 5695, 5614
4431, 5605, 5686, 5695, 5614, 5606, 5687, 5696, 5615
4432, 5606, 5687, 5696, 5615, 5607, 5688, 5697, 5616
4433, 5608, 5689, 5698, 5617, 5609, 5690, 5699, 5618
4434, 5609, 5690, 5699, 5618, 5610, 5691, 5700, 5619
4435, 5610, 5691, 5700, 5619, 5611, 5692, 5701, 5620
4436, 5611, 5692, 5701, 5620, 5612, 5693, 5702, 5621
4437, 5612, 5693, 5702, 5621, 5613, 5694, 5703, 5622
4438, 5613, 5694, 5703, 5622, 5614, 5695, 5704, 5623
4439, 5614, 5695, 5704, 5623, 5615, 5696, 5705, 5624
4440, 5615, 5696, 5705, 5624, 5616, 5697, 5706, 5625
4441, 5617, 5698, 5707, 5626, 5618, 5699, 5708, 5627
4442, 5618, 5699, 5708, 5627, 5619, 5700, 5709, 5628
4443, 5619, 5700, 5709, 5628, 5620, 5701, 5710, 5629
4444, 5620, 5701, 5710, 5629, 5621, 5702, 5711, 5630
4445, 5621, 5702, 5711, 5630, 5622, 5703, 5712, 5631
4446, 5622, 5703, 5712, 5631, 5623, 5704, 5713, 5632
4447, 5623, 5704, 5713, 5632, 5624, 5705, 5714, 5633
4448, 5624, 5705, 5714, 5633, 5625, 5706, 5715, 5634
4449, 5626, 5707, 5716, 5635, 5627, 5708, 5717, 5636
4450, 5627, 5708, 5717, 5636, 5628, 5709, 5718, 5637
4451, 5628, 5709, 5718, 5637, 5629, 5710, 5719, 5638
4452, 5629, 5710, 5719, 5638, 5630, 5711, 5720, 5639
4453, 5630, 5711, 5720, 5639, 5631, 5712, 5721, 5640
4454, 5631, 5712, 5721, 5640, 5632, 5713, 5722, 5641
4455, 5632, 5713, 5722, 5641, 5633, 5714, 5723, 5642
4456, 5633, 5714, 5723, 5642, 5634, 5715, 5724, 5643
4457, 5635, 5716, 5725, 5644, 5636, 5717, 5726, 5645
4458, 5636, 5717, 5726, 5645, 5637, 5718, 5727, 5646
4459, 5637, 5718, 5727, 5646, 5638, 5719, 5728, 5647
4460, 5638, 5719, 5728, 5647, 5639, 5720, 5729, 5648
4461, 5639, 5720, 5729, 5648, 5640, 5721, 5730, 5649
4462, 5640, 5721, 5730, 5649, 5641, 5722, 5731, 5650
4463, 5641, 5722, 5731, 5650, 5642, 5723, 5732, 5651
4464, 5642, 5723, 5732, 5651, 5643, 5724, 5733, 5652
4465, 5644, 5725, 5734, 5653, 5645, 5726, 5735, 5654
4466, 5645, 5726, 5735, 5654, 5646, 5727, 5736, 5655
4467, 5646, 5727, 5736, 5655, 5647, 5728, 5737, 5656
4468, 5647, 5728, 5737, 5656, 5648, 5729, 5738, 5657
4469, 5648, 5729, 5738, 5657, 5649, 5730, 5739, 5658
4470, 5649, 5730, 5739, 5658, 5650, 5731, 5740, 5659
4471, 5650, 5731, 5740, 5659, 5651, 5732, 5741, 5660
4472, 5651, 5732, 5741, 5660, 5652, 5733, 5742, 5661
4473, 5653, 5734, 5743, 5662, 5654, 5735, 5744, 5663
4474, 5654, 5735, 5744, 5663, 5655, 5736, 5745, 5664
4475, 5655, 5736, 5745, 5664, 5656, 5737, 5746, 5665
4476, 5656, 5737, 5746, 5665, 5657, 5738, 5747, 5666
4477, 5657, 5738, 5747, 5666, 5658, 5739, 5748, 5667
4478, 5658, 5739, 5748, 5667, 5659, 5740, 5749, 5668
4479, 5659, 5740, 5749, 5668, 5660, 5741, 5750, 5669
4480, 5660, 5741, 5750, 5669, 5661, 5742, 5751, 5670
4481, 5671, 5752, 5761, 5680, 5672, 5753, 5762, 5681
4482, 5672, 5753, 5762, 5681, 5673, 5754, 5763, 5682
4483, 5673, 5754, 5763, 5682, 5674, 5755, 5764, 5683
4484, 5674, 5755, 5764, 5683, 5675, 5756, 5765, 5684
4485, 5675, 5756, 5765, 5684, 5676, 5757, 5766, 5685
4486, 5676, 5757, 5766, 5685, 5677, 5758, 5767, 5686
4487, 5677, 5758, 5767, 5686, 5678, 5759, 5768, 5687
4488, 5678, 5759, 5768, 5687, 5679, 5760, 5769, 5688
4489, 5680, 5761, 5770, 5689, 5681, 5762, 5771, 5690
4490, 5681, 5762, 5771, 5690, 5682, 5763, 5772, 5691
4491, 5682, 5763, 5772, 5691, 5683, 5764, 5773, 5692
4492, 5683, 5764, 5773, 5692, 5684, 5765, 5774, 5693
4493, 5684, 5765, 5774, 5693, 5685, 5766, 5775, 5694
4494, 5685, 5766, 5775, 5694, 5686, 5767, 5776, 5695
4495, 5686, 5767, 5776, 5695, 5687, 5768, 5777, 5696
4496, 5687, 5768, 5777, 5696, 5688, 5769, 5778, 5697
4497, 5689, 5770, 5779, 5698, 5690, 5771, 5780, 5699
4498, 5690, 5771, 5780, 5699, 5691, 5772, 5781, 5700
4499, 5691, 5772, 5781, 5700, 5692, 5773, 5782, 5701
4500, 5692, 5773, 5782, 5701, 5693, 5774, 5783, 5702
4501, 5693, 5774, 5783, 5702, 5694, 5775, 5784, 5703
4502, 5694, 5775, 5784, 5703, 5695, 5776, 5785, 5704
4503, 5695, 5776, 5785, 5704, 5696, 5777, 5786, 5705
4504, 5696, 5777, 5786, 5705, 5697, 5778, 5787, 5706
4505, 5698, 5779, 5788, 5707, 5699, 5780, 5789, 5708
4506, 5699, 5780, 5789, 5708, 5700, 5781, 5790, 5709
4507, 5700, 5781, 5790, 5709, 5701, 5782, 5791, 5710
4508, 5701, 5782, 5791, 5710, 5702, 5783, 5792, 5711
4509, 5702, 5783, 5792, 5711, 5703, 5784, 5793, 5712
4510, 5703, 5784, 5793, 5712, 5704, 5785, 5794, 5713
4511, 5704, 5785, 5794, 5713, 5705, 5786, 5795, 5714
4512, 5705, 5786, 5795, 5714, 5706, 5787, 5796, 5715
4513, 5707, 5788, 5797, 5716, 5708, 5789, 5798, 5717
4514, 5708, 5789, 5798, 5717, 5709, 5790, 5799, 5718
4515, 5709, 5790, 5799, 5718, 5710, 5791, 5800, 5719
4516, 5710, 5791, 5800, 5719, 5711, 5792, 5801, 5720
4517, 5711, 5792, 5801, 5720, 5712, 5793, 5802, 5721
4518, 5712, 5793, 5802, 5721, 5713, 5794, 5803, 5722
4519, 5713, 5794, 5803, 5722, 5714, 5795, 5804, 5723
4520, 5714, 5795, 5804, 5723, 5715, 5796, 5805, 5724
4521, 5716, 5797, 5806, 5725, 5717, 5798, 5807, 5726
4522, 5717, 5798, 5807, 5726, 5718, 5799, 5808, 5727
4523, 5718, 5799, 5808, 5727, 5719, 5800, 5809, 5728
4524, 5719, 5800, 5809, 5728, 5720, 5801, 5810, 5729
4525, 5720, 5801, 5810, 5729, 5721, 5802, 5811, 5730
4526, 5721, 5802, 5811, 5730, 5722, 5803, 5812, 5731
4527, 5722, 5803, 5812, 5731, 5723, 5804, 5813, 5732
4528, 5723, 5804, 5813, 5732, 5724, 5805, 5814, 5733
4529, 5725, 5806, 5815, 5734, 5726, 5807, 5816, 5735
4530, 5726, 5807, 5816, 5735, 5727, 5808, 5817, 5736
4531, 5727, 5808, 5817, 5736, 5728, 5809, 5818, 5737
4532, 5728, 5809, 5818, 5737, 5729, 5810, 5819, 5738
4533, 5729, 5810, 5819, 5738, 5730, 5811, 5820, 5739
4534, 5730, 5811, 5820, 5739, 5731, 5812, 5821, 5740
4535, 5731, 5812, 5821, 5740, 5732, 5813, 5822, 5741
4536, 5732, 5813, 5822, 5741, 5733, 5814, 5823, 5742
4537, 5734, 5815, 5824, 5743, 5735, 5816, 5825, 5744
4538, 5735, 5816, 5825, 5744, 5736, 5817, 5826, 5745
4539, 5736, 5817, 5826, 5745, 5737, 5818, 5827, 5746
4540, 5737, 5818, 5827, 5746, 5738, 5819, 5828, 5747
4541, 5738, 5819, 5828, 5747, 5739, 5820, 5829, 5748
4542, 5739, 5820, 5829, 5748, 5740, 5821, 5830, 5749
4543, 5740, 5821, 5830, 5749, 5741, 5822, 5831, 5750
4544, 5741, 5822, 5831, 5750, 5742, 5823, 5832, 5751
4545, 5752, 5833, 5842, 5761, 5753, 5834, 5843, 5762
4546, 5753, 5834, 5843, 5762, 5754, 5835, 5844, 5763
4547, 5754, 5835, 5844, 5763, 5755, 5836, 5845, 5764
4548, 5755, 5836, 5845, 5764, 5756, 5837, 5846, 5765
4549, 5756, 5837, 5846, 5765, 5757, 5838, 5847, 5766
4550, 5757, 5838, 5847, 5766, 5758, 5839, 5848, 5767
4551, 5758, 5839, 5848, 5767, 5759, 5840, 5849, 5768
4552, 5759, 5840, 5849, 5768, 5760, 5841, 5850, 5769
4553, 5761, 5842, 5851, 5770, 5762, 5843, 5852, 5771
4554, 5762, 5843, 5852, 5771, 5763, 5844, 5853, 5772
4555, 5763, 5844, 5853, 5772, 5764, 5845, 5854, 5773
4556, 5764, 5845, 5854, 5773, 5765, 5846, 5855, 5774
4557, 5765, 5846, 5855, 5774, 5766, 5847, 5856, 5775
4558, 5766, 5847, 5856, 5775, 5767, 5848, 5857, 5776
4559, 5767, 5848, 5857, 5776, 5768, 5849, 5858, 5777
4560, 5768, 5849, 5858, 5777, 5769, 5850, 5859, 5778
4561, 5770, 5851, 5860, 5779, 5771, 5852, 5861, 5780
4562, 5771, 5852, 5861, 5780, 5772, 5853, 5862, 5781
4563, 5772, 5853, 5862, 5781, 5773, 5854, 5863, 5782
4564, 5773, 5854, 5863, 5782, 5774, 5855, 5864, 5783
4565, 5774, 5855, 5864, 5783, 5775, 5856, 5865, 5784
4566, 5775, 5856, 5865, 5784, 5776, 5857, 5866, 5785
4567, 5776, 5857, 5866, 5785, 5777, 5858, 5867, 5786
4568, 5777, 5858, 5867, 5786, 5778, 5859, 5868, 5787
4569, 5779, 5860, 5869, 5788, 5780, 5861, 5870, 5789
4570, 5780, 5861, 5870, 5789, 5781, 5862, 5871, 5790
4571, 5781, 5862, 5871, 5790, 5782, 5863, 5872, 5791
4572, 5782, 5863, 5872, 5791, 5783, 5864, 5873, 5792
4573, 5783, 5864, 5873, 5792, 5784, 5865, 5874, 5793
4574, 5784, 5865, 5874, 5793, 5785, 5866, 5875, 5794
4575, 5785, 5866, 5875, 5794, 5786, 5867, 5876, 5795
4576, 5786, 5867, 5876, 5795, 5787, 5868, 5877, 5796
4577, 5788, 5869, 5878, 5797, 5789, 5870, 5879, 5798
4578, 5789, 5870, 5879, 5798, 5790, 5871, 5880, 5799
4579, 5790, 5871, 5880, 5799, 5791, 5872, 5881, 5800
4580, 5791, 5872, 5881, 5800, 5792, 5873, 5882, 5801
4581, 5792, 5873, 5882, 5801, 5793, 5874, 5883, 5802
4582, 5793, 5874, 5883, 5802, 5794, 5875, 5884, 5803
4583, 5794, 5875, 5884, 5803, 5795, 5876, 5885, 5804
4584, 5795, 5876, 5885, 5804, 5796, 5877, 5886, 5805
4585, 5797, 5878, 5887, 5806, 5798, 5879, 5888, 5807
4586, 5798, 5879, 5888, 5807, 5799, 5880, 5889, 5808
4587, 5799, 5880, 5889, 5808, 5800, 5881, 5890, 5809
4588, 5800, 5881, 5890, 5809, 5801, 5882, 5891, 5810
4589, 5801, 5882, 5891, 5810, 5802, 5883, 5892, 5811
4590, 5802, 5883, 5892, 5811, 5803, 5884, 5893, 5812
4591, 5803, 5884, 5893, 5812, 5804, 5885, 5894, 5813
4592, 5804, 5885, 5894, 5813, 5805, 5886, 5895, 5814
4593, 5806, 5887, 5896, 5815, 5807, 5888, 5897, 5816
4594, 5807, 5888, 5897, 5816, 5808, 5889, 5898, 5817
4595, 5808, 5889, 5898, 5817, 5809, 5890, 5899, 5818
4596, 5809, 5890, 5899, 5818, 5810, 5891, 5900, 5819
4597, 5810, 5891, 5900, 5819, 5811, 5892, 5901, 5820
4598, 5811, 5892, 5901, 5820, 5812, 5893, 5902, 5821
4599, 5812, 5893, 5902, 5821, 5813, 5894, 5903, 5822
4600, 5813, 5894, 5903, 5822, 5814, 5895, 5904, 5823
4601, 5815, 5896, 5905, 5824, 5816, 5897, 5906, 5825
4602, 5816, 5897, 5906, 5825, 5817, 5898, 5907, 5826
4603, 5817, 5898, 5907, 5826, 5818, 5899, 5908, 5827
4604, 5818, 5899, 5908, 5827, 5819, 5900, 5909, 5828
4605, 5819, 5900, 5909, 5828, 5820, 5901, 5910, 5829
4606, 5820, 5901, 5910, 5829, 5821, 5902, 5911, 5830
4607, 5821, 5902, 5911, 5830, 5822, 5903, 5912, 5831
4608, 5822, 5903, 5912, 5831, 5823, 5904, 5913, 5832
4609, 5833, 5914, 5923, 5842, 5834, 5915, 5924, 5843
4610, 5834, 5915, 5924, 5843, 5835, 5916, 5925, 5844
4611, 5835, 5916, 5925, 5844, 5836, 5917, 5926, 5845
4612, 5836, 5917, 5926, 5845, 5837, 5918, 5927, 5846
4613, 5837, 5918, 5927, 5846, 5838, 5919, 5928, 5847
4614, 5838, 5919, 5928, 5847, 5839, 5920, 5929, 5848
4615, 5839, 5920, 5929, 5848, 5840, 5921, 5930, 5849
4616, 5840, 5921, 5930, 5849, 5841, 5922, 5931, 5850
4617, 5842, 5923, 5932, 5851, 5843, 5924, 5933, 5852
4618, 5843, 5924, 5933, 5852, 5844, 5925, 5934, 5853
4619, 5844, 5925, 5934, 5853, 5845, 5926, 5935, 5854
4620, 5845, 5926, 5935, 5854, 5846, 5927, 5936, 5855
4621, 5846, 5927, 5936, 5855, 5847, 5928, 5937, 5856
4622, 5847, 5928, 5937, 5856, 5848, 5929, 5938, 5857
4623, 5848, 5929, 5938, 5857, 5849, 5930, 5939, 5858
4624, 5849, 5930, 5939, 5858, 5850, 5931, 5940, 5859
4625, 5851, 5932, 5941, 5860, 5852, 5933, 5942, 5861
4626, 5852, 5933, 5942, 5861, 5853, 5934, 5943, 5862
4627, 5853, 5934, 5943, 5862, 5854, 5935, 5944, 5863
4628, 5854, 5935, 5944, 5863, 5855, 5936, 5945, 5864
4629, 5855, 5936, 5945, 5864, 5856, 5937, 5946, 5865
4630, 5856, 5937, 5946, 5865, 5857, 5938, 5947, 5866
4631, 5857, 5938, 5947, 5866, 5858, 5939, 5948, 5867
4632, 5858, 5939, 5948, 5867, 5859, 5940, 5949, 5868
4633, 5860, 5941, 5950, 5869, 5861, 5942, 5951, 5870
4634, 5861, 5942, 5951, 5870, 5862, 5943, 5952, 5871
4635, 5862, 5943, 5952, 5871, 5863, 5944, 5953, 5872
4636, 5863, 5944, 5953, 5872, 5864, 5945, 5954, 5873
4637, 5864, 5945, 5954, 5873, 5865, 5946, 5955, 5874
4638, 5865, 5946, 5955, 5874, 5866, 5947, 5956, 5875
4639, 5866, 5947, 5956, 5875, 5867, 5948, 5957, 5876
4640, 5867, 5948, 5957, 5876, 5868, 5949, 5958, 5877
4641, 5869, 5950, 5959, 5878, 5870, 5951, 5960, 5879
4642, 5870, 5951, 5960, 5879, 5871, 5952, 5961, 5880
4643, 5871, 5952, 5961, 5880, 5872, 5953, 5962, 5881
4644, 5872, 5953, 5962, 5881, 5873, 5954, 5963, 5882
4645, 5873, 5954, 5963, 5882, 5874, 5955, 5964, 5883
4646, 5874, 5955, 5964, 5883, 5875, 5956, 5965, 5884
4647, 5875, 5956, 5965, 5884, 5876, 5957, 5966, 5885
4648, 5876, 5957, 5966, 5885, 5877, 5958, 5967, 5886
4649, 5878, 5959, 5968, 5887, 5879, 5960, 5969, 5888
4650, 5879, 5960, 5969, 5888, 5880, 5961, 5970, 5889
4651, 5880, 5961, 5970, 5889, 5881, 5962, 5971, 5890
4652, 5881, 5962, 5971, 5890, 5882, 5963, 5972, 5891
4653, 5882, 5963, 5972, 5891, 5883, 5964, 5973, 5892
4654, 5883, 5964, 5973, 5892, 5884, 5965, 5974, 5893
4655, 5884, 5965, 5974, 5893, 5885, 5966, 5975, 5894
4656, 5885, 5966, 5975, 5894, 5886, 5967, 5976, 5895
4657, 5887, 5968, 5977, 5896, 5888, 5969, 5978, 5897
4658, 5888, 5969, 5978, 5897, 5889, 5970, 5979, 5898
4659, 5889, 5970, 5979, 5898, 5890, 5971, 5980, 5899
4660, 5890, 5971, 5980, 5899, 5891, 5972, 5981, 5900
4661, 5891, 5972, 5981, 5900, 5892, 5973, 5982, 5901
4662, 5892, 5973, 5982, 5901, 5893, 5974, 5983, 5902
4663, 5893, 5974, 5983, 5902, 5894, 5975, 5984, 5903
4664, 5894, 5975, 5984, 5903, 5895, 5976, 5985, 5904
4665, 5896, 5977, 5986, 5905, 5897, 5978, 5987, 5906
4666, 5897, 5978, 5987, 5906, 5898, 5979, 5988, 5907
4667, 5898, 5979, 5988, 5907, 5899, 5980, 5989, 5908
4668, 5899, 5980, 5989, 5908, 5900, 5981, 5990, 5909
4669, 5900, 5981, 5990, 5909, 5901, 5982, 5991, 5910
4670, 5901, 5982, 5991, 5910, 5902, 5983, 5992, 5911
4671, 5902, 5983, 5992, 5911, 5903, 5984, 5993, 5912
4672, 5903, 5984, 5993, 5912, 5904, 5985, 5994, 5913
4673, 5914, 5995, 6004, 5923, 5915, 5996, 6005, 5924
4674, 5915, 5996, 6005, 5924, 5916, 5997, 6006, 5925
4675, 5916, 5997, 6006, 5925, 5917, 5998, 6007, 5926
4676, 5917, 5998, 6007, 5926, 5918, 5999, 6008, 5927
4677, 5918, 5999, 6008, 5927, 5919, 6000, 6009, 5928
4678, 5919, 6000, 6009, 5928, 5920, 6001, 6010, 5929
4679, 5920, 6001, 6010, 5929, 5921, 6002, 6011, 5930
4680, 5921, 6002, 6011, 5930, 5922, 6003, 6012, 5931
4681, 5923, 6004, 6013, 5932, 5924, 6005, 6014, 5933
4682, 5924, 6005, 6014, 5933, 5925, 6006, 6015, 5934
4683, 5925, 6006, 6015, 5934, 5926, 6007, 6016, 5935
4684, 5926, 6007, 6016, 5935, 5927, 6008, 6017, 5936
4685, 5927, 6008, 6017, 5936, 5928, 6009, 6018, 5937
4686, 5928, 6009, 6018, 5937, 5929, 6010, 6019, 5938
4687, 5929, 6010, 6019, 5938, 5930, 6011, 6020, 5939
4688, 5930, 6011, 6020, 5939, 5931, 6012, 6021, 5940
4689, 5932, 6013, 6022, 5941, 5933, 6014, 6023, 5942
4690, 5933, 6014, 6023, 5942, 5934, 6015, 6024, 5943
4691, 5934, 6015, 6024, 5943, 5935, 6016, 6025, 5944
4692, 5935, 6016, 6025, 5944, 5936, 6017, 6026, 5945
4693, 5936, 6017, 6026, 5945, 5937, 6018, 6027, 5946
4694, 5937, 6018, 6027, 5946, 5938, 6019, 6028, 5947
4695, 5938, 6019, 6028, 5947, 5939, 6020, 6029, 5948
4696, 5939, 6020, 6029, 5948, 5940, 6021, 6030, 5949
4697, 5941, 6022, 6031, 5950, 5942, 6023, 6032, 5951
4698, 5942, 6023, 6032, 5951, 5943, 6024, 6033, 5952
4699, 5943, 6024, 6033, 5952, 5944, 6025, 6034, 5953
4700, 5944, 6025, 6034, 5953, 5945, 6026, 6035, 5954
4701, 5945, 6026, 6035, 5954, 5946, 6027, 6036, 5955
4702, 5946, 6027, 6036, 5955, 5947, 6028, 6037, 5956
4703, 5947, 6028, 6037, 5956, 5948, 6029, 6038, 5957
4704, 5948, 6029, 6038, 5957, 5949, 6030, 6039, 5958
4705, 5950, 6031, 6040, 5959, 5951, 6032, 6041, 5960
4706, 5951, 6032, 6041, 5960, 5952, 6033, 6042, 5961
4707, 5952, 6033, 6042, 5961, 5953, 6034, 6043, 5962
4708, 5953, 6034, 6043, 5962, 5954, 6035, 6044, 5963
4709, 5954, 6035, 6044, 5963, 5955, 6036, 6045, 5964
4710, 5955, 6036, 6045, 5964, 5956, 6037, 6046, 5965
4711, 5956, 6037, 6046, 5965, 5957, 6038, 6047, 5966
4712, 5957, 6038, 6047, 5966, 5958, 6039, 6048, 5967
4713, 5959, 6040, 6049, 5968, 5960, 6041, 6050, 5969
4714, 5960, 6041, 6050, 5969, 5961, 6042, 6051, 5970
4715, 5961, 6042, 6051, 5970, 5962, 6043, 6052, 5971
4716, 5962, 6043, 6052, 5971, 5963, 6044, 6053, 5972
4717, 5963, 6044, 6053, 5972, 5964, 6045, 6054, 5973
4718, 5964, 6045, 6054, 5973, 5965, 6046, 6055, 5974
4719, 5965, 6046, 6055, 5974, 5966, 6047, 6056, 5975
4720, 5966, 6047, 6056, 5975, 5967, 6048, 6057, 5976
4721, 5968, 6049, 6058, 5977, 5969, 6050, 6059, 5978
4722, 5969, 6050, 6059, 5978, 5970, 6051, 6060, 5979
4723, 5970, 6051, 6060, 5979, 5971, 6052, 6061, 5980
4724, 5971, 6052, 6061, 5980, 5972, 6053, 6062, 5981
4725, 5972, 6053, 6062, 5981, 5973, 6054, 6063, 5982
4726, 5973, 6054, 6063, 5982, 5974, 6055, 6064, 5983
4727, 5974, 6055, 6064, 5983, 5975, 6056, 6065, 5984
4728, 5975, 6056, 6065, 5984, 5976, 6057, 6066, 5985
4729, 5977, 6058, 6067, 5986, 5978, 6059, 6068, 5987
4730, 5978, 6059, 6068, 5987, 5979, 6060, 6069, 5988
4731, 5979, 6060, 6069, 5988, 5980, 6061, 6070, 5989
4732, 5980, 6061, 6070, 5989, 5981, 6062, 6071, 5990
4733, 5981, 6062, 6071, 5990, 5982, 6063, 6072, 5991
4734, 5982, 6063, 6072, 5991, 5983, 6064, 6073, 5992
4735, 5983, 6064, 6073, 5992, 5984, 6065, 6074, 5993
4736, 5984, 6065, 6074, 5993, 5985, 6066, 6075, 5994
4737, 5995, 6076, 6085, 6004, 5996, 6077, 6086, 6005
4738, 5996, 6077, 6086, 6005, 5997, 6078, 6087, 6006
4739, 5997, 6078, 6087, 6006, 5998, 6079, 6088, 6007
4740, 5998, 6079, 6088, 6007, 5999, 6080, 6089, 6008
4741, 5999, 6080, 6089, 6008, 6000, 6081, 6090, 6009
4742, 6000, 6081, 6090, 6009, 6001, 6082, 6091, 6010
4743, 6001, 6082, 6091, 6010, 6002, 6083, 6092, 6011
4744, 6002, 6083, 6092, 6011, 6003, 6084, 6093, 6012
4745, 6004, 6085, 6094, 6013, 6005, 6086, 6095, 6014
4746, 6005, 6086, 6095, 6014, 6006, 6087, 6096, 6015
4747, 6006, 6087, 6096, 6015, 6007, 6088, 6097, 6016
4748, 6007, 6088, 6097, 6016, 6008, 6089, 6098, 6017
4749, 6008, 6089, 6098, 6017, 6009, 6090, 6099, 6018
4750, 6009, 6090, 6099, 6018, 6010, 6091, 6100, 6019
4751, 6010, 6091, 6100, 6019, 6011, 6092, 6101, 6020
4752, 6011, 6092, 6101, 6020, 6012, 6093, 6102, 6021
4753, 6013, 6094, 6103, 6022, 6014, 6095, 6104, 6023
4754, 6014, 6095, 6104, 6023, 6015, 6096, 6105, 6024
4755, 6015, 6096, 6105, 6024, 6016, 6097, 6106, 6025
4756, 6016, 6097, 6106, 6025, 6017, 6098, 6107, 6026
4757, 6017, 6098, 6107, 6026, 6018, 6099, 6108, 6027
4758, 6018, 6099, 6108, 6027, 6019, 6100, 6109, 6028
4759, 6019, 6100, 6109, 6028, 6020, 6101, 6110, 6029
4760, 6020, 6101, 6110, 6029, 6021, 6102, 6111, 6030
4761, 6022, 6103, 6112, 6031, 6023, 6104, 6113, 6032
4762, 6023, 6104, 6113, 6032, 6024, 6105, 6114, 6033
4763, 6024, 6105, 6114, 6033, 6025, 6106, 6115, 6034
4764, 6025, 6106, 6115, 6034, 6026, 6107, 6116, 6035
4765, 6026, 6107, 6116, 6035, 6027, 6108, 6117, 6036
4766, 6027, 6108, 6117, 6036, 6028, 6109, 6118, 6037
4767, 6028, 6109, 6118, 6037, 6029, 6110, 6119, 6038
4768, 6029, 6110, 6119, 6038, 6030, 6111, 6120, 6039
4769, 6031, 6112, 6121, 6040, 6032, 6113, 6122, 6041
4770, 6032, 6113, 6122, 6041, 6033, 6114, 6123, 6042
4771, 6033, 6114, 6123, 6042, 6034, 6115, 6124, 6043
4772, 6034, 6115, 6124, 6043, 6035, 6116, 6125, 6044
4773, 6035, 6116, 6125, 6044, 6036, 6117, 6126, 6045
4774, 6036, 6117, 6126, 6045, 6037, 6118, 6127, 6046
4775, 6037, 6118, 6127, 6046, 6038, 6119, 6128, 6047
4776, 6038, 6119, 6128, 6047, 6039, 6120, 6129, 6048
4777, 6040, 6121, 6130, 6049, 6041, 6122, 6131, 6050
4778, 6041, 6122, 6131, 6050, 6042, 6123, 6132, 6051
4779, 6042, 6123, 6132, 6051, 6043, 6124, 6133, 6052
4780, 6043, 6124, 6133, 6052, 6044, 6125, 6134, 6053
4781, 6044, 6125, 6134, 6053, 6045, 6126, 6135, 6054
4782, 6045, 6126, 6135, 6054, 6046, 6127, 6136, 6055
4783, 6046, 6127, 6136, 6055, 6047, 6128, 6137, 6056
4784, 6047, 6128, 6137, 6056, 6048, 6129, 6138, 6057
4785, 6049, 6130, 6139, 6058, 6050, 6131, 6140, 6059
4786, 6050, 6131, 6140, 6059, 6051, 6132, 6141, 6060
4787, 6051, 6132, 6141, 6060, 6052, 6133, 6142, 6061
4788, 6052, 6133, 6142, 6061, 6053, 6134, 6143, 6062
4789, 6053, 6134, 6143, 6062, 6054, 6135, 6144, 6063
4790, 6054, 6135, 6144, 6063, 6055, 6136, 6145, 6064
4791, 6055, 6136, 6145, 6064, 6056, 6137, 6146, 6065
4792, 6056, 6137, 6146, 6065, 6057, 6138, 6147, 6066
4793, 6058, 6139, 6148, 6067, 6059, 6140, 6149, 6068
4794, 6059, 6140, 6149, 6068, 6060, 6141, 6150, 6069
4795, 6060, 6141, 6150, 6069, 6061, 6142, 6151, 6070
4796, 6061, 6142, 6151, 6070, 6062, 6143, 6152, 6071
4797, 6062, 6143, 6152, 6071, 6063, 6144, 6153, 6072
4798, 6063, 6144, 6153, 6072, 6064, 6145, 6154, 6073
4799, 6064, 6145, 6154, 6073, 6065, 6146, 6155, 6074
4800, 6065, 6146, 6155, 6074, 6066, 6147, 6156, 6075
4801, 6076, 6157, 6166, 6085, 6077, 6158, 6167, 6086
4802, 6077, 6158, 6167, 6086, 6078, 6159, 6168, 6087
4803, 6078, 6159, 6168, 6087, 6079, 6160, 6169, 6088
4804, 6079, 6160, 6169, 6088, 6080, 6161, 6170, 6089
4805, 6080, 6161, 6170, 6089, 6081, 6162, 6171, 6090
4806, 6081, 6162, 6171, 6090, 6082, 6163, 6172, 6091
4807, 6082, 6163, 6172, 6091, 6083, 6164, 6173, 6092
4808, 6083, 6164, 6173, 6092, 6084, 6165, 6174, 6093
4809, 6085, 6166, 6175, 6094, 6086, 6167, 6176, 6095
4810, 6086, 6167, 6176, 6095, 6087, 6168, 6177, 6096
4811, 6087, 6168, 6177, 6096, 6088, 6169, 6178, 6097
4812, 6088, 6169, 6178, 6097, 6089, 6170, 6179, 6098
4813, 6089, 6170, 6179, 6098, 6090, 6171, 6180, 6099
4814, 6090, 6171, 6180, 6099, 6091, 6172, 6181, 6100
4815, 6091, 6172, 6181, 6100, 6092, 6173, 6182, 6101
4816, 6092, 6173, 6182, 6101, 6093, 6174, 6183, 6102
4817, 6094, 6175, 6184, 6103, 6095, 6176, 6185, 6104
4818, 6095, 6176, 6185, 6104, 6096, 6177, 6186, 6105
4819, 6096, 6177, 6186, 6105, 6097, 6178, 6187, 6106
4820, 6097, 6178, 6187, 6106, 6098, 6179, 6188, 6107
4821, 6098, 6179, 6188, 6107, 6099, 6180, 6189, 6108
4822, 6099, 6180, 6189, 6108, 6100, 6181, 6190, 6109
4823, 6100, 6181, 6190, 6109, 6101, 6182, 6191, 6110
4824, 6101, 6182, 6191, 6110, 6102, 6183, 6192, 6111
4825, 6103, 6184, 6193, 6112, 6104, 6185, 6194, 6113
4826, 6104, 6185, 6194, 6113, 6105, 6186, 6195, 6114
4827, 6105, 6186, 6195, 6114, 6106, 6187, 6196, 6115
4828, 6106, 6187, 6196, 6115, 6107, 6188, 6197, 6116
4829, 6107, 6188, 6197, 6116, 6108, 6189, 6198, 6117
4830, 6108, 6189, 6198, 6117, 6109, 6190, 6199, 6118
4831, 6109, 6190, 6199, 6118, 6110, 6191, 6200, 6119
4832, 6110, 6191, 6200, 6119, 6111, 6192, 6201, 6120
4833, 6112, 6193, 6202, 6121, 6113, 6194, 6203, 6122
4834, 6113, 6194, 6203, 6122, 6114, 6195, 6204, 6123
4835, 6114, 6195, 6204, 6123, 6115, 6196, 6205, 6124
4836, 6115, 6196, 6205, 6124, 6116, 6197, 6206, 6125
4837, 6116, 6197, 6206, 6125, 6117, 6198, 6207, 6126
4838, 6117, 6198, 6207, 6126, 6118, 6199, 6208, 6127
4839, 6118, 6199, 6208, 6127, 6119, 6200, 6209, 6128
4840, 6119, 6200, 6209, 6128, 6120, 6201, 6210, 6129
4841, 6121, 6202, 6211, 6130, 6122, 6203, 6212, 6131
4842, 6122, 6203, 6212, 6131, 6123, 6204, 6213, 6132
4843, 6123, 6204, 6213, 6132, 6124, 6205, 6214, 6133
4844, 6124, 6205, 6214, 6133, 6125, 6206, 6215, 6134
4845, 6125, 6206, 6215, 6134, 6126, 6207, 6216, 6135
4846, 6126, 6207, 6216, 6135, 6127, 6208, 6217, 6136
4847, 6127, 6208, 6217, 6136, 6128, 6209, 6218, 6137
4848, 6128, 6209, 6218, 6137, 6129, 6210, 6219, 6138
4849, 6130, 6211, 6220, 6139, 6131, 6212, 6221, 6140
4850, 6131, 6212, 6221, 6140, 6132, 6213, 6222, 6141
4851, 6132, 6213, 6222, 6141, 6133, 6214, 6223, 6142
4852, 6133, 6214, 6223, 6142, 6134, 6215, 6224, 6143
4853, 6134, 6215, 6224, 6143, 6135, 6216, 6225, 6144
4854, 6135, 6216, 6225, 6144, 6136, 6217, 6226, 6145
4855, 6136, 6217, 6226, 6145, 6137, 6218, 6227, 6146
4856, 6137, 6218, 6227, 6146, 6138, 6219, 6228, 6147
4857, 6139, 6220, 6229, 6148, 6140, 6221, 6230, 6149
4858, 6140, 6221, 6230, 6149, 6141, 6222, 6231, 6150
4859, 6141, 6222, 6231, 6150, 6142, 6223, 6232, 6151
4860, 6142, 6223, 6232, 6151, 6143, 6224, 6233, 6152
4861, 6143, 6224, 6233, 6152, 6144, 6225, 6234, 6153
4862, 6144, 6225, 6234, 6153, 6145, 6226, 6235, 6154
4863, 6145, 6226, 6235, 6154, 6146, 6227, 6236, 6155
4864, 6146, 6227, 6236, 6155, 6147, 6228, 6237, 6156
4865, 6157, 6238, 6247, 6166, 6158, 6239, 6248, 6167
4866, 6158, 6239, 6248, 6167, 6159, 6240, 6249, 6168
4867, 6159, 6240, 6249, 6168, 6160, 6241, 6250, 6169
4868, 6160, 6241, 6250, 6169, 6161, 6242, 6251, 6170
4869, 6161, 6242, 6251, 6170, 6162, 6243, 6252, 6171
4870, 6162, 6243, 6252, 6171, 6163, 6244, 6253, 6172
4871, 6163, 6244, 6253, 6172, 6164, 6245, 6254, 6173
4872, 6164, 6245, 6254, 6173, 6165, 6246, 6255, 6174
4873, 6166, 6247, 6256, 6175, 6167, 6248, 6257, 6176
4874, 6167, 6248, 6257, 6176, 6168, 6249, 6258, 6177
4875, 6168, 6249, 6258, 6177, 6169, 6250, 6259, 6178
4876, 6169, 6250, 6259, 6178, 6170, 6251, 6260, 6179
4877, 6170, 6251, 6260, 6179, 6171, 6252, 6261, 6180
4878, 6171, 6252, 6261, 6180, 6172, 6253, 6262, 6181
4879, 6172, 6253, 6262, 6181, 6173, 6254, 6263, 6182
4880, 6173, 6254, 6263, 6182, 6174, 6255, 6264, 6183
4881, 6175, 6256, 6265, 6184, 6176, 6257, 6266, 6185
4882, 6176, 6257, 6266, 6185, 6177, 6258, 6267, 6186
4883, 6177, 6258, 6267, 6186, 6178, 6259, 6268, 6187
4884, 6178, 6259, 6268, 6187, 6179, 6260, 6269, 6188
4885, 6179, 6260, 6269, 6188, 6180, 6261, 6270, 6189
4886, 6180, 6261, 6270, 6189, 6181, 6262, 6271, 6190
4887, 6181, 6262, 6271, 6190, 6182, 6263, 6272, 6191
4888, 6182, 6263, 6272, 6191, 6183, 6264, 6273, 6192
4889, 6184, 6265, 6274, 6193, 6185, 6266, 6275, 6194
4890, 6185, 6266, 6275, 6194, 6186, 6267, 6276, 6195
4891, 6186, 6267, 6276, 6195, 6187, 6268, 6277, 6196
4892, 6187, 6268, 6277, 6196, 6188, 6269, 6278, 6197
4893, 6188, 6269, 6278, 6197, 6189, 6270, 6279, 6198
4894, 6189, 6270, 6279, 6198, 6190, 6271, 6280, 6199
4895, 6190, 6271, 6280, 6199, 6191, 6272, 6281, 6200
4896, 6191, 6272, 6281, 6200, 6192, 6273, 6282, 6201
4897, 6193, 6274, 6283, 6202, 6194, 6275, 6284, 6203
4898, 6194, 6275, 6284, 6203, 6195, 6276, 6285, 6204
4899, 6195, 6276, 6285, 6204, 6196, 6277, 6286, 6205
4900, 6196, 6277, 6286, 6205, 6197, 6278, 6287, 6206
4901, 6197, 6278, 6287, 6206, 6198, 6279, 6288, 6207
4902, 6198, 6279, 6288, 6207, 6199, 6280, 6289, 6208
4903, 6199, 6280, 6289, 6208, 6200, 6281, 6290, 6209
4904, 6200, 6281, 6290, 6209, 6201, 6282, 6291, 6210
4905, 6202, 6283, 6292, 6211, 6203, 6284, 6293, 6212
4906, 6203, 6284, 6293, 6212, 6204, 6285, 6294, 6213
4907, 6204, 6285, 6294, 6213, 6205, 6286, 6295, 6214
4908, 6205, 6286, 6295, 6214, 6206, 6287, 6296, 6215
4909, 6206, 6287, 6296, 6215, 6207, 6288, 6297, 6216
4910, 6207, 6288, 6297, 6216, 6208, 6289, 6298, 6217
4911, 6208, 6289, 6298, 6217, 6209, 6290, 6299, 6218
4912, 6209, 6290, 6299, 6218, 6210, 6291, 6300, 6219
4913, 6211, 6292, 6301, 6220, 6212, 6293, 6302, 6221
4914, 6212, 6293, 6302, 6221, 6213, 6294, 6303, 6222
4915, 6213, 6294, 6303, 6222, 6214, 6295, 6304, 6223
4916, 6214, 6295, 6304, 6223, 6215, 6296, 6305, 6224
4917, 6215, 6296, 6305, 6224, 6216, 6297, 6306, 6225
4918, 6216, 6297, 6306, 6225, 6217, 6298, 6307, 6226
4919, 6217, 6298, 6307, 6226, 6218, 6299, 6308, 6227
4920, 6218, 6299, 6308, 6227, 6219, 6300, 6309, 6228
4921, 6220, 6301, 6310, 6229, 6221, 6302, 6311, 6230
4922, 6221, 6302, 6311, 6230, 6222, 6303, 6312, 6231
4923, 6222, 6303, 6312, 6231, 6223, 6304, 6313, 6232
4924, 6223, 6304, 6313, 6232, 6224, 6305, 6314, 6233
4925, 6224, 6305, 6314, 6233, 6225, 6306, 6315, 6234
4926, 6225, 6306, 6315, 6234, 6226, 6307, 6316, 6235
4927, 6226, 6307, 6316, 6235, 6227, 6308, 6317, 6236
4928, 6227, 6308, 6317, 6236, 6228, 6309, 6318, 6237
4929, 6238, 6319, 6328, 6247, 6239, 6320, 6329, 6248
4930, 6239, 6320, 6329, 6248, 6240, 6321, 6330, 6249
4931, 6240, 6321, 6330, 6249, 6241, 6322, 6331, 6250
4932, 6241, 6322, 6331, 6250, 6242, 6323, 6332, 6251
4933, 6242, 6323, 6332, 6251, 6243, 6324, 6333, 6252
4934, 6243, 6324, 6333, 6252, 6244, 6325, 6334, 6253
4935, 6244, 6325, 6334, 6253, 6245, 6326, 6335, 6254
4936, 6245, 6326, 6335, 6254, 6246, 6327, 6336, 6255
4937, 6247, 6328, 6337, 6256, 6248, 6329, 6338, 6257
4938, 6248, 6329, 6338, 6257, 6249, 6330, 6339, 6258
4939, 6249, 6330, 6339, 6258, 6250, 6331, 6340, 6259
4940, 6250, 6331, 6340, 6259, 6251, 6332, 6341, 6260
4941, 6251, 6332, 6341, 6260, 6252, 6333, 6342, 6261
4942, 6252, 6333, 6342, 6261, 6253, 6334, 6343, 6262
4943, 6253, 6334, 6343, 6262, 6254, 6335, 6344, 6263
4944, 6254, 6335, 6344, 6263, 6255, 6336, 6345, 6264
4945, 6256, 6337, 6346, 6265, 6257, 6338, 6347, 6266
4946, 6257, 6338, 6347, 6266, 6258, 6339, 6348, 6267
4947, 6258, 6339, 6348, 6267, 6259, 6340, 6349, 6268
4948, 6259, 6340, 6349, 6268, 6260, 6341, 6350, 6269
4949, 6260, 6341, 6350, 6269, 6261, 6342, 6351, 6270
4950, 6261, 6342, 6351, 6270, 6262, 6343, 6352, 6271
4951, 6262, 6343, 6352, 6271, 6263, 6344, 6353, 6272
4952, 6263, 6344, 6353, 6272, 6264, 6345, 6354, 6273
4953, 6265, 6346, 6355, 6274, 6266, 6347, 6356, 6275
4954, 6266, 6347, 6356, 6275, 6267, 6348, 6357, 6276
4955, 6267, 6348, 6357, 6276, 6268, 6349, 6358, 6277
4956, 6268, 6349, 6358, 6277, 6269, 6350, 6359, 6278
4957, 6269, 6350, 6359, 6278, 6270, 6351, 6360, 6279
4958, 6270, 6351, 6360, 6279, 6271, 6352, 6361, 6280
4959, 6271, 6352, 6361, 6280, 6272, 6353, 6362, 6281
4960, 6272, 6353, 6362, 6281, 6273, 6354, 6363, 6282
4961, 6274, 6355, 6364, 6283, 6275, 6356, 6365, 6284
4962, 6275, 6356, 6365, 6284, 6276, 6357, 6366, 6285
4963, 6276, 6357, 6366, 6285, 6277, 6358, 6367, 6286
4964, 6277, 6358, 6367, 6286, 6278, 6359, 6368, 6287
4965, 6278, 6359, 6368, 6287, 6279, 6360, 6369, 6288
4966, 6279, 6360, 6369, 6288, 6280, 6361, 6370, 6289
4967, 6280, 6361, 6370, 6289, 6281, 6362, 6371, 6290
4968, 6281, 6362, 6371, 6290, 6282, 6363, 6372, 6291
4969, 6283, 6364, 6373, 6292, 6284, 6365, 6374, 6293
4970, 6284, 6365, 6374, 6293, 6285, 6366, 6375, 6294
4971, 6285, 6366, 6375, 6294, 6286, 6367, 6376, 6295
4972, 6286, 6367, 6376, 6295, 6287, 6368, 6377, 6296
4973, 6287, 6368, 6377, 6296, 6288, 6369, 6378, 6297
4974, 6288, 6369, 6378, 6297, 6289, 6370, 6379, 6298
4975, 6289, 6370, 6379, 6298, 6290, 6371, 6380, 6299
4976, 6290, 6371, 6380, 6299, 6291, 6372, 6381, 6300
4977, 6292, 6373, 6382, 6301, 6293, 6374, 6383, 6302
4978, 6293, 6374, 6383, 6302, 6294, 6375, 6384, 6303
4979, 6294, 6375, 6384, 6303, 6295, 6376, 6385, 6304
4980, 6295, 6376, 6385, 6304, 6296, 6377, 6386, 6305
4981, 6296, 6377, 6386, 6305, 6297, 6378, 6387, 6306
4982, 6297, 6378, 6387, 6306, 6298, 6379, 6388, 6307
4983, 6298, 6379, 6388, 6307, 6299, 6380, 6389, 6308
4984, 6299, 6380, 6389, 6308, 6300, 6381, 6390, 6309
4985, 6301, 6382, 6391, 6310, 6302, 6383, 6392, 6311
4986, 6302, 6383, 6392, 6311, 6303, 6384, 6393, 6312
4987, 6303, 6384, 6393, 6312, 6304, 6385, 6394, 6313
4988, 6304, 6385, 6394, 6313, 6305, 6386, 6395, 6314
4989, 6305, 6386, 6395, 6314, 6306, 6387, 6396, 6315
4990, 6306, 6387, 6396, 6315, 6307, 6388, 6397, 6316
4991, 6307, 6388, 6397, 6316, 6308, 6389, 6398, 6317
4992, 6308, 6389, 6398, 6317, 6309, 6390, 6399, 6318
4993, 6319, 6400, 6409, 6328, 6320, 6401, 6410, 6329
4994, 6320, 6401, 6410, 6329, 6321, 6402, 6411, 6330
4995, 6321, 6402, 6411, 6330, 6322, 6403, 6412, 6331
4996, 6322, 6403, 6412, 6331, 6323, 6404, 6413, 6332
4997, 6323, 6404, 6413, 6332, 6324, 6405, 6414, 6333
4998, 6324, 6405, 6414, 6333, 6325, 6406, 6415, 6334
4999, 6325, 6406, 6415, 6334, 6326, 6407, 6416, 6335
5000, 6326, 6407, 6416, 6335, 6327, 6408, 6417, 6336
5001, 6328, 6409, 6418, 6337, 6329, 6410, 6419, 6338
5002, 6329, 6410, 6419, 6338, 6330, 6411, 6420, 6339
5003, 6330, 6411, 6420, 6339, 6331, 6412, 6421, 6340
5004, 6331, 6412, 6421, 6340, 6332, 6413, 6422, 6341
5005, 6332, 6413, 6422, 6341, 6333, 6414, 6423, 6342
5006, 6333, 6414, 6423, 6342, 6334, 6415, 6424, 6343
5007, 6334, 6415, 6424, 6343, 6335, 6416, 6425, 6344
5008, 6335, 6416, 6425, 6344, 6336, 6417, 6426, 6345
5009, 6337, 6418, 6427, 6346, 6338, 6419, 6428, 6347
5010, 6338, 6419, 6428, 6347, 6339, 6420, 6429, 6348
5011, 6339, 6420, 6429, 6348, 6340, 6421, 6430, 6349
5012, 6340, 6421, 6430, 6349, 6341, 6422, 6431, 6350
5013, 6341, 6422, 6431, 6350, 6342, 6423, 6432, 6351
5014, 6342, 6423, 6432, 6351, 6343, 6424, 6433, 6352
5015, 6343, 6424, 6433, 6352, 6344, 6425, 6434, 6353
5016, 6344, 6425, 6434, 6353, 6345, 6426, 6435, 6354
5017, 6346, 6427, 6436, 6355, 6347, 6428, 6437, 6356
5018, 6347, 6428, 6437, 6356, 6348, 6429, 6438, 6357
5019, 6348, 6429, 6438, 6357, 6349, 6430, 6439, 6358
5020, 6349, 6430, 6439, 6358, 6350, 6431, 6440, 6359
5021, 6350, 6431, 6440, 6359, 6351, 6432, 6441, 6360
5022, 6351, 6432, 6441, 6360, 6352, 6433, 6442, 6361
5023, 6352, 6433, 6442, 6361, 6353, 6434, 6443, 6362
5024, 6353, 6434, 6443, 6362, 6354, 6435, 6444, 6363
5025, 6355, 6436, 6445, 6364, 6356, 6437, 6446, 6365
5026, 6356, 6437, 6446, 6365, 6357, 6438, 6447, 6366
5027, 6357, 6438, 6447, 6366, 6358, 6439, 6448, 6367
5028, 6358, 6439, 6448, 6367, 6359, 6440, 6449, 6368
5029, 6359, 6440, 6449, 6368, 6360, 6441, 6450, 6369
5030, 6360, 6441, 6450, 6369, 6361, 6442, 6451, 6370
5031, 6361, 6442, 6451, 6370, 6362, 6443, 6452, 6371
5032, 6362, 6443, 6452, 6371, 6363, 6444, 6453, 6372
5033, 6364, 6445, 6454, 6373, 6365, 6446, 6455, 6374
5034, 6365, 6446, 6455, 6374, 6366, 6447, 6456, 6375
5035, 6366, 6447, 6456, 6375, 6367, 6448, 6457, 6376
5036, 6367, 6448, 6457, 6376, 6368, 6449, 6458, 6377
5037, 6368, 6449, 6458, 6377, 6369, 6450, 6459, 6378
5038, 6369, 6450, 6459, 6378, 6370, 6451, 6460, 6379
5039, 6370, 6451, 6460, 6379, 6371, 6452, 6461, 6380
5040, 6371, 6452, 6461, 6380, 6372, 6453, 6462, 6381
5041, 6373, 6454, 6463, 6382, 6374, 6455, 6464, 6383
5042, 6374, 6455, 6464, 6383, 6375, 6456, 6465, 6384
5043, 6375, 6456, 6465, 6384, 6376, 6457, 6466, 6385
5044, 6376, 6457, 6466, 6385, 6377, 6458, 6467, 6386
5045, 6377, 6458, 6467, 6386, 6378, 6459, 6468, 6387
5046, 6378, 6459, 6468, 6387, 6379, 6460, 6469, 6388
5047, 6379, 6460, 6469, 6388, 6380, 6461, 6470, 6389
5048, 6380, 6461, 6470, 6389, 6381, 6462, 6471, 6390
5049, 6382, 6463, 6472, 6391, 6383, 6464, 6473, 6392
5050, 6383, 6464, 6473, 6392, 6384, 6465, 6474, 6393
5051, 6384, 6465, 6474, 6393, 6385, 6466, 6475, 6394
5052, 6385, 6466, 6475, 6394, 6386, 6467, 6476, 6395
5053, 6386, 6467, 6476, 6395, 6387, 6468, 6477, 6396
5054, 6387, 6468, 6477, 6396, 6388, 6469, 6478, 6397
5055, 6388, 6469, 6478, 6397, 6389, 6470, 6479, 6398
5056, 6389, 6470, 6479, 6398, 6390, 6471, 6480, 6399
5057, 6400, 6481, 6490, 6409, 6401, 6482, 6491, 6410
5058, 6401, 6482, 6491, 6410, 6402, 6483, 6492, 6411
5059, 6402, 6483, 6492, 6411, 6403, 6484, 6493, 6412
5060, 6403, 6484, 6493, 6412, 6404, 6485, 6494, 6413
5061, 6404, 6485, 6494, 6413, 6405, 6486, 6495, 6414
5062, 6405, 6486, 6495, 6414, 6406, 6487, 6496, 6415
5063, 6406, 6487, 6496, 6415, 6407, 6488, 6497, 6416
5064, 6407, 6488, 6497, 6416, 6408, 6489, 6498, 6417
5065, 6409, 6490, 6499, 6418, 6410, 6491, 6500, 6419
5066, 6410, 6491, 6500, 6419, 6411, 6492, 6501, 6420
5067, 6411, 6492, 6501, 6420, 6412, 6493, 6502, 6421
5068, 6412, 6493, 6502, 6421, 6413, 6494, 6503, 6422
5069, 6413, 6494, 6503, 6422, 6414, 6495, 6504, 6423
5070, 6414, 6495, 6504, 6423, 6415, 6496, 6505, 6424
5071, 6415, 6496, 6505, 6424, 6416, 6497, 6506, 6425
5072, 6416, 6497, 6506, 6425, 6417, 6498, 6507, 6426
5073, 6418, 6499, 6508, 6427, 6419, 6500, 6509, 6428
5074, 6419, 6500, 6509, 6428, 6420, 6501, 6510, 6429
5075, 6420, 6501, 6510, 6429, 6421, 6502, 6511, 6430
5076, 6421, 6502, 6511, 6430, 6422, 6503, 6512, 6431
5077, 6422, 6503, 6512, 6431, 6423, 6504, 6513, 6432
5078, 6423, 6504, 6513, 6432, 6424, 6505, 6514, 6433
5079, 6424, 6505, 6514, 6433, 6425, 6506, 6515, 6434
5080, 6425, 6506, 6515, 6434, 6426, 6507, 6516, 6435
5081, 6427, 6508, 6517, 6436, 6428, 6509, 6518, 6437
5082, 6428, 6509, 6518, 6437, 6429, 6510, 6519, 6438
5083, 6429, 6510, 6519, 6438, 6430, 6511, 6520, 6439
5084, 6430, 6511, 6520, 6439, 6431, 6512, 6521, 6440
5085, 6431, 6512, 6521, 6440, 6432, 6513, 6522, 6441
5086, 6432, 6513, 6522, 6441, 6433, 6514, 6523, 6442
5087, 6433, 6514, 6523, 6442, 6434, 6515, 6524, 6443
5088, 6434, 6515, 6524, 6443, 6435, 6516, 6525, 6444
5089, 6436, 6517, 6526, 6445, 6437, 6518, 6527, 6446
5090, 6437, 6518, 6527, 6446, 6438, 6519, 6528, 6447
5091, 6438, 6519, 6528, 6447, 6439, 6520, 6529, 6448
5092, 6439, 6520, 6529, 6448, 6440, 6521, 6530, 6449
5093, 6440, 6521, 6530, 6449, 6441, 6522, 6531, 6450
5094, 6441, 6522, 6531, 6450, 6442, 6523, 6532, 6451
5095, 6442, 6523, 6532, 6451, 6443, 6524, 6533, 6452
5096, 6443, 6524, 6533, 6452, 6444, 6525, 6534, 6453
5097, 6445, 6526, 6535, 6454, 6446, 6527, 6536, 6455
5098, 6446, 6527, 6536, 6455, 6447, 6528, 6537, 6456
5099, 6447, 6528, 6537, 6456, 6448, 6529, 6538, 6457
5100, 6448, 6529, 6538, 6457, 6449, 6530, 6539, 6458
5101, 6449, 6530, 6539, 6458, 6450, 6531, 6540, 6459
5102, 6450, 6531, 6540, 6459, 6451, 6532, 6541, 6460
5103, 6451, 6532, 6541, 6460, 6452, 6533, 6542, 6461
5104, 6452, 6533, 6542, 6461, 6453, 6534, 6543, 6462
5105, 6454, 6535, 6544, 6463, 6455, 6536, 6545, 6464
5106, 6455, 6536, 6545, 6464, 6456, 6537, 6546, 6465
5107, 6456, 6537, 6546, 6465, 6457, 6538, 6547, 6466
5108, 6457, 6538, 6547, 6466, 6458, 6539, 6548, 6467
5109, 6458, 6539, 6548, 6467, 6459, 6540, 6549, 6468
5110, 6459, 6540, 6549, 6468, 6460, 6541, 6550, 6469
5111, 6460, 6541, 6550, 6469, 6461, 6542, 6551, 6470
5112, 6461, 6542, 6551, 6470, 6462, 6543, 6552, 6471
5113, 6463, 6544, 6553, 6472, 6464, 6545, 6554, 6473
5114, 6464, 6545, 6554, 6473, 6465, 6546, 6555, 6474
5115, 6465, 6546, 6555, 6474, 6466, 6547, 6556, 6475
5116, 6466, 6547, 6556, 6475, 6467, 6548, 6557, 6476
5117, 6467, 6548, 6557, 6476, 6468, 6549, 6558, 6477
5118, 6468, 6549, 6558, 6477, 6469, 6550, 6559, 6478
5119, 6469, 6550, 6559, 6478, 6470, 6551, 6560, 6479
5120, 6470, 6551, 6560, 6479, 6471, 6552, 6561, 6480
*NSET, NSET=FIXED
1, 2, 3, 4, 5, 6, 7, 8,
9, 10, 11, 12, 13, 14, 15, 16,
17, 18, 19, 20, 21, 22, 23, 24,
25, 26, 27, 28, 29, 30, 31, 32,
33, 34, 35, 36, 37, 38, 39, 40,
41, 42, 43, 44, 45, 46, 47, 48,
49, 50, 51, 52, 53, 54, 55, 56,
57, 58, 59, 60, 61, 62, 63, 64,
65, 66, 67, 68, 69, 70, 71, 72,
73, 74, 75, 76, 77, 78, 79, 80,
81,
*NSET, NSET=TIPLOAD
6481, 6482, 6483, 6484, 6485, 6486, 6487, 6488,
6489, 6490, 6491, 6492, 6493, 6494, 6495, 6496,
6497, 6498, 6499, 6500, 6501, 6502, 6503, 6504,
6505, 6506, 6507, 6508, 6509, 6510, 6511, 6512,
6513, 6514, 6515, 6516, 6517, 6518, 6519, 6520,
6521, 6522, 6523, 6524, 6525, 6526, 6527, 6528,
6529, 6530, 6531, 6532, 6533, 6534, 6535, 6536,
6537, 6538, 6539, 6540, 6541, 6542, 6543, 6544,
6545, 6546, 6547, 6548, 6549, 6550, 6551, 6552,
6553, 6554, 6555, 6556, 6557, 6558, 6559, 6560,
6561,
