!-   ==========================================================================
!-   Single-zone office - EnergyPlus 25.2.0
!-
!-   A 10 x 8 x 3 m open-plan office in Rome, served by an ideal-loads air
!-   system. The model runs on sizing periods only (a winter and a summer
!-   design day), so no .epw weather file is needed and the case is fully
!-   self-contained.
!-
!-   To run a full annual simulation instead, drop a weather file next to this
!-   .idf, add a RunPeriod object and set "Run Simulation for Weather File Run
!-   Periods" to Yes in SimulationControl.
!-   ==========================================================================

Version,
    25.2;                    !- Version Identifier

SimulationControl,
    Yes,                     !- Do Zone Sizing Calculation
    No,                      !- Do System Sizing Calculation
    No,                      !- Do Plant Sizing Calculation
    Yes,                     !- Run Simulation for Sizing Periods
    No,                      !- Run Simulation for Weather File Run Periods
    No,                      !- Do HVAC Sizing Simulation for Sizing Periods
    1;                       !- Maximum Number of HVAC Sizing Simulation Passes

Building,
    Single-zone office,      !- Name
    0.0,                     !- North Axis {deg}
    City,                    !- Terrain
    0.04,                    !- Loads Convergence Tolerance Value {W}
    0.4,                     !- Temperature Convergence Tolerance Value {deltaC}
    FullInteriorAndExterior, !- Solar Distribution
    25,                      !- Maximum Number of Warmup Days
    6;                       !- Minimum Number of Warmup Days

Timestep,
    6;                       !- Number of Timesteps per Hour

GlobalGeometryRules,
    UpperLeftCorner,         !- Starting Vertex Position
    CounterClockWise,        !- Vertex Entry Direction
    World;                   !- Coordinate System

!-   -------------------------------------------------------------- location

Site:Location,
    Rome,                    !- Name
    41.80,                   !- Latitude {deg}
    12.60,                   !- Longitude {deg}
    1.00,                    !- Time Zone {hr}
    20.0;                    !- Elevation {m}

SizingPeriod:DesignDay,
    Rome winter design day,  !- Name
    1,                       !- Month
    21,                      !- Day of Month
    WinterDesignDay,         !- Day Type
    0.0,                     !- Maximum Dry-Bulb Temperature {C}
    0.0,                     !- Daily Dry-Bulb Temperature Range {deltaC}
    ,                        !- Dry-Bulb Temperature Range Modifier Type
    ,                        !- Dry-Bulb Temperature Range Modifier Day Schedule Name
    Wetbulb,                 !- Humidity Condition Type
    0.0,                     !- Wetbulb at Maximum Dry-Bulb {C}
    ,                        !- Humidity Condition Day Schedule Name
    ,                        !- Humidity Ratio at Maximum Dry-Bulb
    ,                        !- Enthalpy at Maximum Dry-Bulb {J/kg}
    ,                        !- Daily Wet-Bulb Temperature Range {deltaC}
    101100.0,                !- Barometric Pressure {Pa}
    4.9,                     !- Wind Speed {m/s}
    0.0,                     !- Wind Direction {deg}
    No,                      !- Rain Indicator
    No,                      !- Snow Indicator
    No,                      !- Daylight Saving Time Indicator
    ASHRAEClearSky,          !- Solar Model Indicator
    ,                        !- Beam Solar Day Schedule Name
    ,                        !- Diffuse Solar Day Schedule Name
    ,                        !- ASHRAE Clear Sky Optical Depth for Beam Irradiance
    ,                        !- ASHRAE Clear Sky Optical Depth for Diffuse Irradiance
    0.0;                     !- Sky Clearness

SizingPeriod:DesignDay,
    Rome summer design day,  !- Name
    7,                       !- Month
    21,                      !- Day of Month
    SummerDesignDay,         !- Day Type
    33.0,                    !- Maximum Dry-Bulb Temperature {C}
    11.0,                    !- Daily Dry-Bulb Temperature Range {deltaC}
    ,                        !- Dry-Bulb Temperature Range Modifier Type
    ,                        !- Dry-Bulb Temperature Range Modifier Day Schedule Name
    Wetbulb,                 !- Humidity Condition Type
    22.0,                    !- Wetbulb at Maximum Dry-Bulb {C}
    ,                        !- Humidity Condition Day Schedule Name
    ,                        !- Humidity Ratio at Maximum Dry-Bulb
    ,                        !- Enthalpy at Maximum Dry-Bulb {J/kg}
    ,                        !- Daily Wet-Bulb Temperature Range {deltaC}
    101100.0,                !- Barometric Pressure {Pa}
    3.6,                     !- Wind Speed {m/s}
    250.0,                   !- Wind Direction {deg}
    No,                      !- Rain Indicator
    No,                      !- Snow Indicator
    No,                      !- Daylight Saving Time Indicator
    ASHRAEClearSky,          !- Solar Model Indicator
    ,                        !- Beam Solar Day Schedule Name
    ,                        !- Diffuse Solar Day Schedule Name
    ,                        !- ASHRAE Clear Sky Optical Depth for Beam Irradiance
    ,                        !- ASHRAE Clear Sky Optical Depth for Diffuse Irradiance
    1.0;                     !- Sky Clearness

! Monthly ground temperatures under the slab. Without this object EnergyPlus
! falls back to a constant 18 C and issues a warning.
Site:GroundTemperature:BuildingSurface,
    18.0,                    !- January Ground Temperature {C}
    18.0,                    !- February Ground Temperature {C}
    18.2,                    !- March Ground Temperature {C}
    18.6,                    !- April Ground Temperature {C}
    19.4,                    !- May Ground Temperature {C}
    20.1,                    !- June Ground Temperature {C}
    20.6,                    !- July Ground Temperature {C}
    20.7,                    !- August Ground Temperature {C}
    20.3,                    !- September Ground Temperature {C}
    19.6,                    !- October Ground Temperature {C}
    18.9,                    !- November Ground Temperature {C}
    18.3;                    !- December Ground Temperature {C}

!-   ------------------------------------------------------------- materials

Material,
    Brick,                   !- Name
    MediumRough,             !- Roughness
    0.100,                   !- Thickness {m}
    0.890,                   !- Conductivity {W/m-K}
    1920.0,                  !- Density {kg/m3}
    790.0;                   !- Specific Heat {J/kg-K}

Material,
    Insulation,              !- Name
    Rough,                   !- Roughness
    0.080,                   !- Thickness {m}
    0.036,                   !- Conductivity {W/m-K}
    30.0,                    !- Density {kg/m3}
    1200.0;                  !- Specific Heat {J/kg-K}

Material,
    Gypsum board,            !- Name
    Smooth,                  !- Roughness
    0.013,                   !- Thickness {m}
    0.160,                   !- Conductivity {W/m-K}
    800.0,                   !- Density {kg/m3}
    1090.0;                  !- Specific Heat {J/kg-K}

Material,
    Concrete slab,           !- Name
    MediumRough,             !- Roughness
    0.200,                   !- Thickness {m}
    1.730,                   !- Conductivity {W/m-K}
    2243.0,                  !- Density {kg/m3}
    837.0;                   !- Specific Heat {J/kg-K}

WindowMaterial:SimpleGlazingSystem,
    Double glazing,          !- Name
    1.600,                   !- U-Factor {W/m2-K}
    0.400,                   !- Solar Heat Gain Coefficient
    0.700;                   !- Visible Transmittance

Construction,
    Exterior wall,           !- Name
    Brick,                   !- Outside Layer
    Insulation,              !- Layer 2
    Gypsum board;            !- Layer 3

Construction,
    Exterior roof,           !- Name
    Concrete slab,           !- Outside Layer
    Insulation,              !- Layer 2
    Gypsum board;            !- Layer 3

Construction,
    Ground floor,            !- Name
    Concrete slab;           !- Outside Layer

Construction,
    Exterior window,         !- Name
    Double glazing;          !- Outside Layer

!-   ------------------------------------------------------------ zone/shell

Zone,
    Office,                  !- Name
    0.0,                     !- Direction of Relative North {deg}
    0.0,                     !- X Origin {m}
    0.0,                     !- Y Origin {m}
    0.0,                     !- Z Origin {m}
    1,                       !- Type
    1,                       !- Multiplier
    3.0,                     !- Ceiling Height {m}
    240.0;                   !- Volume {m3}

BuildingSurface:Detailed,
    South wall,              !- Name
    Wall,                    !- Surface Type
    Exterior wall,           !- Construction Name
    Office,                  !- Zone Name
    ,                        !- Space Name
    Outdoors,                !- Outside Boundary Condition
    ,                        !- Outside Boundary Condition Object
    SunExposed,              !- Sun Exposure
    WindExposed,             !- Wind Exposure
    ,                        !- View Factor to Ground
    4,                       !- Number of Vertices
    0.0,  0.0, 3.0,          !- X,Y,Z Vertex 1 {m}
    0.0,  0.0, 0.0,          !- X,Y,Z Vertex 2 {m}
    10.0, 0.0, 0.0,          !- X,Y,Z Vertex 3 {m}
    10.0, 0.0, 3.0;          !- X,Y,Z Vertex 4 {m}

BuildingSurface:Detailed,
    East wall,               !- Name
    Wall,                    !- Surface Type
    Exterior wall,           !- Construction Name
    Office,                  !- Zone Name
    ,                        !- Space Name
    Outdoors,                !- Outside Boundary Condition
    ,                        !- Outside Boundary Condition Object
    SunExposed,              !- Sun Exposure
    WindExposed,             !- Wind Exposure
    ,                        !- View Factor to Ground
    4,                       !- Number of Vertices
    10.0, 0.0, 3.0,          !- X,Y,Z Vertex 1 {m}
    10.0, 0.0, 0.0,          !- X,Y,Z Vertex 2 {m}
    10.0, 8.0, 0.0,          !- X,Y,Z Vertex 3 {m}
    10.0, 8.0, 3.0;          !- X,Y,Z Vertex 4 {m}

BuildingSurface:Detailed,
    North wall,              !- Name
    Wall,                    !- Surface Type
    Exterior wall,           !- Construction Name
    Office,                  !- Zone Name
    ,                        !- Space Name
    Outdoors,                !- Outside Boundary Condition
    ,                        !- Outside Boundary Condition Object
    SunExposed,              !- Sun Exposure
    WindExposed,             !- Wind Exposure
    ,                        !- View Factor to Ground
    4,                       !- Number of Vertices
    10.0, 8.0, 3.0,          !- X,Y,Z Vertex 1 {m}
    10.0, 8.0, 0.0,          !- X,Y,Z Vertex 2 {m}
    0.0,  8.0, 0.0,          !- X,Y,Z Vertex 3 {m}
    0.0,  8.0, 3.0;          !- X,Y,Z Vertex 4 {m}

BuildingSurface:Detailed,
    West wall,               !- Name
    Wall,                    !- Surface Type
    Exterior wall,           !- Construction Name
    Office,                  !- Zone Name
    ,                        !- Space Name
    Outdoors,                !- Outside Boundary Condition
    ,                        !- Outside Boundary Condition Object
    SunExposed,              !- Sun Exposure
    WindExposed,             !- Wind Exposure
    ,                        !- View Factor to Ground
    4,                       !- Number of Vertices
    0.0, 8.0, 3.0,           !- X,Y,Z Vertex 1 {m}
    0.0, 8.0, 0.0,           !- X,Y,Z Vertex 2 {m}
    0.0, 0.0, 0.0,           !- X,Y,Z Vertex 3 {m}
    0.0, 0.0, 3.0;           !- X,Y,Z Vertex 4 {m}

BuildingSurface:Detailed,
    Roof,                    !- Name
    Roof,                    !- Surface Type
    Exterior roof,           !- Construction Name
    Office,                  !- Zone Name
    ,                        !- Space Name
    Outdoors,                !- Outside Boundary Condition
    ,                        !- Outside Boundary Condition Object
    SunExposed,              !- Sun Exposure
    WindExposed,             !- Wind Exposure
    ,                        !- View Factor to Ground
    4,                       !- Number of Vertices
    0.0,  8.0, 3.0,          !- X,Y,Z Vertex 1 {m}
    0.0,  0.0, 3.0,          !- X,Y,Z Vertex 2 {m}
    10.0, 0.0, 3.0,          !- X,Y,Z Vertex 3 {m}
    10.0, 8.0, 3.0;          !- X,Y,Z Vertex 4 {m}

BuildingSurface:Detailed,
    Floor,                   !- Name
    Floor,                   !- Surface Type
    Ground floor,            !- Construction Name
    Office,                  !- Zone Name
    ,                        !- Space Name
    Ground,                  !- Outside Boundary Condition
    ,                        !- Outside Boundary Condition Object
    NoSun,                   !- Sun Exposure
    NoWind,                  !- Wind Exposure
    ,                        !- View Factor to Ground
    4,                       !- Number of Vertices
    0.0,  0.0, 0.0,          !- X,Y,Z Vertex 1 {m}
    0.0,  8.0, 0.0,          !- X,Y,Z Vertex 2 {m}
    10.0, 8.0, 0.0,          !- X,Y,Z Vertex 3 {m}
    10.0, 0.0, 0.0;          !- X,Y,Z Vertex 4 {m}

FenestrationSurface:Detailed,
    South window,            !- Name
    Window,                  !- Surface Type
    Exterior window,         !- Construction Name
    South wall,              !- Building Surface Name
    ,                        !- Outside Boundary Condition Object
    ,                        !- View Factor to Ground
    ,                        !- Frame and Divider Name
    1.0,                     !- Multiplier
    4,                       !- Number of Vertices
    1.0, 0.0, 2.4,           !- X,Y,Z Vertex 1 {m}
    1.0, 0.0, 0.9,           !- X,Y,Z Vertex 2 {m}
    9.0, 0.0, 0.9,           !- X,Y,Z Vertex 3 {m}
    9.0, 0.0, 2.4;           !- X,Y,Z Vertex 4 {m}

!-   ------------------------------------------------------------- schedules

ScheduleTypeLimits,
    Fraction,                !- Name
    0.0,                     !- Lower Limit Value
    1.0,                     !- Upper Limit Value
    Continuous;              !- Numeric Type

ScheduleTypeLimits,
    Temperature,             !- Name
    -60.0,                   !- Lower Limit Value
    200.0,                   !- Upper Limit Value
    Continuous;              !- Numeric Type

ScheduleTypeLimits,
    Any number;              !- Name

ScheduleTypeLimits,
    Control type,            !- Name
    0,                       !- Lower Limit Value
    4,                       !- Upper Limit Value
    Discrete;                !- Numeric Type

Schedule:Compact,
    Always on,               !- Name
    Fraction,                !- Schedule Type Limits Name
    Through: 12/31,          !- Field 1
    For: AllDays,            !- Field 2
    Until: 24:00, 1.0;       !- Field 3

Schedule:Compact,
    Office occupancy,        !- Name
    Fraction,                !- Schedule Type Limits Name
    Through: 12/31,          !- Field 1
    For: Weekdays SummerDesignDay WinterDesignDay, !- Field 2
    Until: 08:00, 0.0,       !- Field 3
    Until: 12:00, 0.95,      !- Field 5
    Until: 14:00, 0.5,       !- Field 7
    Until: 18:00, 0.95,      !- Field 9
    Until: 24:00, 0.0,       !- Field 11
    For: AllOtherDays,       !- Field 13
    Until: 24:00, 0.0;       !- Field 14

Schedule:Compact,
    Office equipment,        !- Name
    Fraction,                !- Schedule Type Limits Name
    Through: 12/31,          !- Field 1
    For: Weekdays SummerDesignDay WinterDesignDay, !- Field 2
    Until: 08:00, 0.1,       !- Field 3
    Until: 18:00, 0.9,       !- Field 5
    Until: 24:00, 0.1,       !- Field 7
    For: AllOtherDays,       !- Field 9
    Until: 24:00, 0.1;       !- Field 10

Schedule:Compact,
    Activity level,          !- Name
    Any number,              !- Schedule Type Limits Name
    Through: 12/31,          !- Field 1
    For: AllDays,            !- Field 2
    Until: 24:00, 120.0;     !- Field 3

Schedule:Compact,
    Heating setpoint,        !- Name
    Temperature,             !- Schedule Type Limits Name
    Through: 12/31,          !- Field 1
    For: Weekdays WinterDesignDay, !- Field 2
    Until: 07:00, 16.0,      !- Field 3
    Until: 19:00, 20.0,      !- Field 5
    Until: 24:00, 16.0,      !- Field 7
    For: AllOtherDays,       !- Field 9
    Until: 24:00, 16.0;      !- Field 10

Schedule:Compact,
    Cooling setpoint,        !- Name
    Temperature,             !- Schedule Type Limits Name
    Through: 12/31,          !- Field 1
    For: Weekdays SummerDesignDay, !- Field 2
    Until: 07:00, 30.0,      !- Field 3
    Until: 19:00, 26.0,      !- Field 5
    Until: 24:00, 30.0,      !- Field 7
    For: AllOtherDays,       !- Field 9
    Until: 24:00, 30.0;      !- Field 10

Schedule:Compact,
    Control type schedule,   !- Name
    Control type,            !- Schedule Type Limits Name
    Through: 12/31,          !- Field 1
    For: AllDays,            !- Field 2
    Until: 24:00, 4;         !- Field 3

!-   ---------------------------------------------------------- internal gains

People,
    Office people,           !- Name
    Office,                  !- Zone or ZoneList or Space or SpaceList Name
    Office occupancy,        !- Number of People Schedule Name
    People,                  !- Number of People Calculation Method
    8.0,                     !- Number of People
    ,                        !- People per Floor Area {person/m2}
    ,                        !- Floor Area per Person {m2/person}
    0.3,                     !- Fraction Radiant
    ,                        !- Sensible Heat Fraction
    Activity level;          !- Activity Level Schedule Name

Lights,
    Office lights,           !- Name
    Office,                  !- Zone or ZoneList or Space or SpaceList Name
    Office occupancy,        !- Schedule Name
    Watts/Area,              !- Design Level Calculation Method
    ,                        !- Lighting Level {W}
    8.0,                     !- Watts per Zone Floor Area {W/m2}
    ,                        !- Watts per Person {W/person}
    0.0,                     !- Return Air Fraction
    0.42,                    !- Fraction Radiant
    0.18,                    !- Fraction Visible
    1.0,                     !- Fraction Replaceable
    General;                 !- End-Use Subcategory

ElectricEquipment,
    Office equipment gain,   !- Name
    Office,                  !- Zone or ZoneList or Space or SpaceList Name
    Office equipment,        !- Schedule Name
    Watts/Area,              !- Design Level Calculation Method
    ,                        !- Design Level {W}
    10.0,                    !- Watts per Zone Floor Area {W/m2}
    ,                        !- Watts per Person {W/person}
    0.0,                     !- Fraction Latent
    0.3,                     !- Fraction Radiant
    0.0;                     !- Fraction Lost

ZoneInfiltration:DesignFlowRate,
    Office infiltration,     !- Name
    Office,                  !- Zone or ZoneList or Space or SpaceList Name
    Always on,               !- Schedule Name
    AirChanges/Hour,         !- Design Flow Rate Calculation Method
    ,                        !- Design Flow Rate {m3/s}
    ,                        !- Flow Rate per Floor Area {m3/s-m2}
    ,                        !- Flow Rate per Exterior Surface Area {m3/s-m2}
    0.3;                     !- Air Changes per Hour {1/hr}

!-   ------------------------------------------------------------------- HVAC

ZoneControl:Thermostat,
    Office thermostat,       !- Name
    Office,                  !- Zone or ZoneList Name
    Control type schedule,   !- Control Type Schedule Name
    ThermostatSetpoint:DualSetpoint, !- Control 1 Object Type
    Office setpoints;        !- Control 1 Name

ThermostatSetpoint:DualSetpoint,
    Office setpoints,        !- Name
    Heating setpoint,        !- Heating Setpoint Temperature Schedule Name
    Cooling setpoint;        !- Cooling Setpoint Temperature Schedule Name

ZoneHVAC:IdealLoadsAirSystem,
    Office ideal loads,      !- Name
    ,                        !- Availability Schedule Name
    Office supply node,      !- Zone Supply Air Node Name
    ,                        !- Zone Exhaust Air Node Name
    ,                        !- System Inlet Air Node Name
    50.0,                    !- Maximum Heating Supply Air Temperature {C}
    13.0,                    !- Minimum Cooling Supply Air Temperature {C}
    0.0156,                  !- Maximum Heating Supply Air Humidity Ratio {kgWater/kgDryAir}
    0.0077,                  !- Minimum Cooling Supply Air Humidity Ratio {kgWater/kgDryAir}
    NoLimit,                 !- Heating Limit
    ,                        !- Maximum Heating Air Flow Rate {m3/s}
    ,                        !- Maximum Sensible Heating Capacity {W}
    NoLimit,                 !- Cooling Limit
    ,                        !- Maximum Cooling Air Flow Rate {m3/s}
    ,                        !- Maximum Total Cooling Capacity {W}
    ,                        !- Heating Availability Schedule Name
    ,                        !- Cooling Availability Schedule Name
    ConstantSupplyHumidityRatio, !- Dehumidification Control Type
    ,                        !- Cooling Sensible Heat Ratio
    ConstantSupplyHumidityRatio, !- Humidification Control Type
    ,                        !- Design Specification Outdoor Air Object Name
    ,                        !- Outdoor Air Inlet Node Name
    ,                        !- Demand Controlled Ventilation Type
    NoEconomizer,            !- Outdoor Air Economizer Type
    None,                    !- Heat Recovery Type
    ,                        !- Sensible Heat Recovery Effectiveness
    ;                        !- Latent Heat Recovery Effectiveness

ZoneHVAC:EquipmentList,
    Office equipment list,   !- Name
    SequentialLoad,          !- Load Distribution Scheme
    ZoneHVAC:IdealLoadsAirSystem, !- Zone Equipment 1 Object Type
    Office ideal loads,      !- Zone Equipment 1 Name
    1,                       !- Zone Equipment 1 Cooling Sequence
    1,                       !- Zone Equipment 1 Heating or No-Load Sequence
    ,                        !- Zone Equipment 1 Sequential Cooling Fraction Schedule Name
    ;                        !- Zone Equipment 1 Sequential Heating Fraction Schedule Name

ZoneHVAC:EquipmentConnections,
    Office,                  !- Zone Name
    Office equipment list,   !- Zone Conditioning Equipment List Name
    Office supply node,      !- Zone Air Inlet Node or NodeList Name
    ,                        !- Zone Air Exhaust Node or NodeList Name
    Office air node,         !- Zone Air Node Name
    Office return node;      !- Zone Return Air Node or NodeList Name

Sizing:Zone,
    Office,                  !- Zone or ZoneList Name
    SupplyAirTemperature,    !- Zone Cooling Design Supply Air Temperature Input Method
    14.0,                    !- Zone Cooling Design Supply Air Temperature {C}
    ,                        !- Zone Cooling Design Supply Air Temperature Difference {deltaC}
    SupplyAirTemperature,    !- Zone Heating Design Supply Air Temperature Input Method
    40.0,                    !- Zone Heating Design Supply Air Temperature {C}
    ,                        !- Zone Heating Design Supply Air Temperature Difference {deltaC}
    0.0085,                  !- Zone Cooling Design Supply Air Humidity Ratio {kgWater/kgDryAir}
    0.0080,                  !- Zone Heating Design Supply Air Humidity Ratio {kgWater/kgDryAir}
    Office outdoor air,      !- Design Specification Outdoor Air Object Name
    ,                        !- Zone Heating Sizing Factor
    ,                        !- Zone Cooling Sizing Factor
    DesignDay,               !- Cooling Design Air Flow Method
    ,                        !- Cooling Design Air Flow Rate {m3/s}
    ,                        !- Cooling Minimum Air Flow per Zone Floor Area {m3/s-m2}
    ,                        !- Cooling Minimum Air Flow {m3/s}
    ,                        !- Cooling Minimum Air Flow Fraction
    DesignDay;               !- Heating Design Air Flow Method

DesignSpecification:OutdoorAir,
    Office outdoor air,      !- Name
    Flow/Person,             !- Outdoor Air Method
    0.0100;                  !- Outdoor Air Flow per Person {m3/s-person}

!-   ----------------------------------------------------------------- output

Output:VariableDictionary,
    IDF;                     !- Key Field

Output:Variable,
    Office,                  !- Key Value
    Zone Mean Air Temperature, !- Variable Name
    Hourly;                  !- Reporting Frequency

Output:Variable,
    Office,                  !- Key Value
    Zone Air Relative Humidity, !- Variable Name
    Hourly;                  !- Reporting Frequency

Output:Variable,
    Office ideal loads,      !- Key Value
    Zone Ideal Loads Supply Air Total Heating Rate, !- Variable Name
    Hourly;                  !- Reporting Frequency

Output:Variable,
    Office ideal loads,      !- Key Value
    Zone Ideal Loads Supply Air Total Cooling Rate, !- Variable Name
    Hourly;                  !- Reporting Frequency

Output:Variable,
    Environment,             !- Key Value
    Site Outdoor Air Drybulb Temperature, !- Variable Name
    Hourly;                  !- Reporting Frequency

Output:Table:SummaryReports,
    AllSummary;              !- Report 1 Name

OutputControl:Table:Style,
    HTML,                    !- Column Separator
    JtoKWH;                  !- Unit Conversion

Output:SQLite,
    SimpleAndTabular;        !- Option Type
